p cnf 1547 34955
1 2 3 4 5 6 0
-1 -2 0
-1 -3 0
-1 -4 0
-1 -5 0
-1 -6 0
-2 -3 0
-2 -4 0
-2 -5 0
-2 -6 0
-3 -4 0
-3 -5 0
-3 -6 0
-4 -5 0
-4 -6 0
-5 -6 0
7 8 9 10 0
-7 -8 0
-7 -9 0
-7 -10 0
-8 -9 0
-8 -10 0
-9 -10 0
-11 1 0
-11 7 0
-1 -7 11 0
-11 15 12 13 14 0
-11 -15 -12 0
-11 -15 -13 0
-11 -15 -14 0
-16 1 0
-16 8 0
-1 -8 16 0
-16 17 0
-16 15 13 14 0
-16 -15 -13 0
-16 -15 -14 0
-18 1 0
-18 9 0
-1 -9 18 0
-18 12 0
-18 15 14 0
-18 -15 -14 0
-19 1 0
-19 10 0
-1 -10 19 0
-19 13 0
-19 15 0
-20 2 0
-20 7 0
-2 -7 20 0
-20 15 21 22 23 0
-20 -15 -21 0
-20 -15 -22 0
-20 -15 -23 0
-24 2 0
-24 8 0
-2 -8 24 0
-24 25 0
-24 15 22 23 0
-24 -15 -22 0
-24 -15 -23 0
-26 2 0
-26 9 0
-2 -9 26 0
-26 21 0
-26 15 23 0
-26 -15 -23 0
-27 2 0
-27 10 0
-2 -10 27 0
-27 22 0
-27 15 0
-28 3 0
-28 7 0
-3 -7 28 0
-28 15 29 30 31 0
-28 -15 -29 0
-28 -15 -30 0
-28 -15 -31 0
-32 3 0
-32 8 0
-3 -8 32 0
-32 33 0
-32 15 30 31 0
-32 -15 -30 0
-32 -15 -31 0
-34 3 0
-34 9 0
-3 -9 34 0
-34 29 0
-34 15 31 0
-34 -15 -31 0
-35 3 0
-35 10 0
-3 -10 35 0
-35 30 0
-35 15 0
-36 4 0
-36 7 0
-4 -7 36 0
-36 15 37 38 39 0
-36 -15 -37 0
-36 -15 -38 0
-36 -15 -39 0
-40 4 0
-40 8 0
-4 -8 40 0
-40 41 0
-40 15 38 39 0
-40 -15 -38 0
-40 -15 -39 0
-42 4 0
-42 9 0
-4 -9 42 0
-42 37 0
-42 15 39 0
-42 -15 -39 0
-43 4 0
-43 10 0
-4 -10 43 0
-43 38 0
-43 15 0
-44 5 0
-44 7 0
-5 -7 44 0
-44 15 45 46 47 0
-44 -15 -45 0
-44 -15 -46 0
-44 -15 -47 0
-48 5 0
-48 8 0
-5 -8 48 0
-48 49 0
-48 15 46 47 0
-48 -15 -46 0
-48 -15 -47 0
-50 5 0
-50 9 0
-5 -9 50 0
-50 45 0
-50 15 47 0
-50 -15 -47 0
-51 5 0
-51 10 0
-5 -10 51 0
-51 46 0
-51 15 0
-52 6 0
-52 7 0
-6 -7 52 0
-52 15 53 54 55 0
-52 -15 -53 0
-52 -15 -54 0
-52 -15 -55 0
-56 6 0
-56 8 0
-6 -8 56 0
-56 57 0
-56 15 54 55 0
-56 -15 -54 0
-56 -15 -55 0
-58 6 0
-58 9 0
-6 -9 58 0
-58 53 0
-58 15 55 0
-58 -15 -55 0
-59 6 0
-59 10 0
-6 -10 59 0
-59 54 0
-59 15 0
60 61 62 63 64 65 0
-60 -61 0
-60 -62 0
-60 -63 0
-60 -64 0
-60 -65 0
-61 -62 0
-61 -63 0
-61 -64 0
-61 -65 0
-62 -63 0
-62 -64 0
-62 -65 0
-63 -64 0
-63 -65 0
-64 -65 0
66 67 68 69 0
-66 -67 0
-66 -68 0
-66 -69 0
-67 -68 0
-67 -69 0
-68 -69 0
-70 60 0
-70 66 0
-60 -66 70 0
-70 71 12 13 14 0
-70 -71 -12 0
-70 -71 -13 0
-70 -71 -14 0
-72 60 0
-72 67 0
-60 -67 72 0
-72 17 0
-72 71 13 14 0
-72 -71 -13 0
-72 -71 -14 0
-73 60 0
-73 68 0
-60 -68 73 0
-73 12 0
-73 71 14 0
-73 -71 -14 0
-74 60 0
-74 69 0
-60 -69 74 0
-74 13 0
-74 71 0
-75 61 0
-75 66 0
-61 -66 75 0
-75 71 21 22 23 0
-75 -71 -21 0
-75 -71 -22 0
-75 -71 -23 0
-76 61 0
-76 67 0
-61 -67 76 0
-76 25 0
-76 71 22 23 0
-76 -71 -22 0
-76 -71 -23 0
-77 61 0
-77 68 0
-61 -68 77 0
-77 21 0
-77 71 23 0
-77 -71 -23 0
-78 61 0
-78 69 0
-61 -69 78 0
-78 22 0
-78 71 0
-79 62 0
-79 66 0
-62 -66 79 0
-79 71 29 30 31 0
-79 -71 -29 0
-79 -71 -30 0
-79 -71 -31 0
-80 62 0
-80 67 0
-62 -67 80 0
-80 33 0
-80 71 30 31 0
-80 -71 -30 0
-80 -71 -31 0
-81 62 0
-81 68 0
-62 -68 81 0
-81 29 0
-81 71 31 0
-81 -71 -31 0
-82 62 0
-82 69 0
-62 -69 82 0
-82 30 0
-82 71 0
-83 63 0
-83 66 0
-63 -66 83 0
-83 71 37 38 39 0
-83 -71 -37 0
-83 -71 -38 0
-83 -71 -39 0
-84 63 0
-84 67 0
-63 -67 84 0
-84 41 0
-84 71 38 39 0
-84 -71 -38 0
-84 -71 -39 0
-85 63 0
-85 68 0
-63 -68 85 0
-85 37 0
-85 71 39 0
-85 -71 -39 0
-86 63 0
-86 69 0
-63 -69 86 0
-86 38 0
-86 71 0
-87 64 0
-87 66 0
-64 -66 87 0
-87 71 45 46 47 0
-87 -71 -45 0
-87 -71 -46 0
-87 -71 -47 0
-88 64 0
-88 67 0
-64 -67 88 0
-88 49 0
-88 71 46 47 0
-88 -71 -46 0
-88 -71 -47 0
-89 64 0
-89 68 0
-64 -68 89 0
-89 45 0
-89 71 47 0
-89 -71 -47 0
-90 64 0
-90 69 0
-64 -69 90 0
-90 46 0
-90 71 0
-91 65 0
-91 66 0
-65 -66 91 0
-91 71 53 54 55 0
-91 -71 -53 0
-91 -71 -54 0
-91 -71 -55 0
-92 65 0
-92 67 0
-65 -67 92 0
-92 57 0
-92 71 54 55 0
-92 -71 -54 0
-92 -71 -55 0
-93 65 0
-93 68 0
-65 -68 93 0
-93 53 0
-93 71 55 0
-93 -71 -55 0
-94 65 0
-94 69 0
-65 -69 94 0
-94 54 0
-94 71 0
95 96 97 98 99 0
-95 -96 0
-95 -97 0
-95 -98 0
-95 -99 0
-96 -97 0
-96 -98 0
-96 -99 0
-97 -98 0
-97 -99 0
-98 -99 0
100 101 102 103 0
-100 -101 0
-100 -102 0
-100 -103 0
-101 -102 0
-101 -103 0
-102 -103 0
-104 95 0
-104 100 0
-95 -100 104 0
-104 105 12 13 14 21 22 23 0
-104 -105 -12 0
-104 -105 -13 0
-104 -105 -14 0
-104 -105 -21 0
-104 -105 -22 0
-104 -105 -23 0
-106 95 0
-106 101 0
-95 -101 106 0
-106 17 25 0
-106 105 13 14 22 23 0
-106 -105 -13 0
-106 -105 -14 0
-106 -105 -22 0
-106 -105 -23 0
-107 95 0
-107 102 0
-95 -102 107 0
-107 12 21 0
-107 105 14 23 0
-107 -105 -14 0
-107 -105 -23 0
-108 95 0
-108 103 0
-95 -103 108 0
-108 13 22 0
-108 105 0
-109 96 0
-109 100 0
-96 -100 109 0
-109 105 21 22 23 29 30 31 0
-109 -105 -21 0
-109 -105 -22 0
-109 -105 -23 0
-109 -105 -29 0
-109 -105 -30 0
-109 -105 -31 0
-110 96 0
-110 101 0
-96 -101 110 0
-110 25 33 0
-110 105 22 23 30 31 0
-110 -105 -22 0
-110 -105 -23 0
-110 -105 -30 0
-110 -105 -31 0
-111 96 0
-111 102 0
-96 -102 111 0
-111 21 29 0
-111 105 23 31 0
-111 -105 -23 0
-111 -105 -31 0
-112 96 0
-112 103 0
-96 -103 112 0
-112 22 30 0
-112 105 0
-113 97 0
-113 100 0
-97 -100 113 0
-113 105 29 30 31 37 38 39 0
-113 -105 -29 0
-113 -105 -30 0
-113 -105 -31 0
-113 -105 -37 0
-113 -105 -38 0
-113 -105 -39 0
-114 97 0
-114 101 0
-97 -101 114 0
-114 33 41 0
-114 105 30 31 38 39 0
-114 -105 -30 0
-114 -105 -31 0
-114 -105 -38 0
-114 -105 -39 0
-115 97 0
-115 102 0
-97 -102 115 0
-115 29 37 0
-115 105 31 39 0
-115 -105 -31 0
-115 -105 -39 0
-116 97 0
-116 103 0
-97 -103 116 0
-116 30 38 0
-116 105 0
-117 98 0
-117 100 0
-98 -100 117 0
-117 105 37 38 39 45 46 47 0
-117 -105 -37 0
-117 -105 -38 0
-117 -105 -39 0
-117 -105 -45 0
-117 -105 -46 0
-117 -105 -47 0
-118 98 0
-118 101 0
-98 -101 118 0
-118 41 49 0
-118 105 38 39 46 47 0
-118 -105 -38 0
-118 -105 -39 0
-118 -105 -46 0
-118 -105 -47 0
-119 98 0
-119 102 0
-98 -102 119 0
-119 37 45 0
-119 105 39 47 0
-119 -105 -39 0
-119 -105 -47 0
-120 98 0
-120 103 0
-98 -103 120 0
-120 38 46 0
-120 105 0
-121 99 0
-121 100 0
-99 -100 121 0
-121 105 45 46 47 53 54 55 0
-121 -105 -45 0
-121 -105 -46 0
-121 -105 -47 0
-121 -105 -53 0
-121 -105 -54 0
-121 -105 -55 0
-122 99 0
-122 101 0
-99 -101 122 0
-122 49 57 0
-122 105 46 47 54 55 0
-122 -105 -46 0
-122 -105 -47 0
-122 -105 -54 0
-122 -105 -55 0
-123 99 0
-123 102 0
-99 -102 123 0
-123 45 53 0
-123 105 47 55 0
-123 -105 -47 0
-123 -105 -55 0
-124 99 0
-124 103 0
-99 -103 124 0
-124 46 54 0
-124 105 0
125 126 127 128 0
-125 -126 0
-125 -127 0
-125 -128 0
-126 -127 0
-126 -128 0
-127 -128 0
129 130 131 132 0
-129 -130 0
-129 -131 0
-129 -132 0
-130 -131 0
-130 -132 0
-131 -132 0
-133 125 0
-133 129 0
-125 -129 133 0
-133 134 12 13 14 21 22 23 29 30 31 0
-133 -134 -12 0
-133 -134 -13 0
-133 -134 -14 0
-133 -134 -21 0
-133 -134 -22 0
-133 -134 -23 0
-133 -134 -29 0
-133 -134 -30 0
-133 -134 -31 0
-135 125 0
-135 130 0
-125 -130 135 0
-135 17 25 0
-135 17 33 0
-135 25 33 0
-135 134 13 14 22 23 30 31 0
-135 -134 -13 0
-135 -134 -14 0
-135 -134 -22 0
-135 -134 -23 0
-135 -134 -30 0
-135 -134 -31 0
-136 125 0
-136 131 0
-125 -131 136 0
-136 12 21 0
-136 12 29 0
-136 21 29 0
-136 134 14 23 31 0
-136 -134 -14 0
-136 -134 -23 0
-136 -134 -31 0
-137 125 0
-137 132 0
-125 -132 137 0
-137 13 22 0
-137 13 30 0
-137 22 30 0
-137 134 0
-138 126 0
-138 129 0
-126 -129 138 0
-138 134 21 22 23 29 30 31 37 38 39 0
-138 -134 -21 0
-138 -134 -22 0
-138 -134 -23 0
-138 -134 -29 0
-138 -134 -30 0
-138 -134 -31 0
-138 -134 -37 0
-138 -134 -38 0
-138 -134 -39 0
-139 126 0
-139 130 0
-126 -130 139 0
-139 25 33 0
-139 25 41 0
-139 33 41 0
-139 134 22 23 30 31 38 39 0
-139 -134 -22 0
-139 -134 -23 0
-139 -134 -30 0
-139 -134 -31 0
-139 -134 -38 0
-139 -134 -39 0
-140 126 0
-140 131 0
-126 -131 140 0
-140 21 29 0
-140 21 37 0
-140 29 37 0
-140 134 23 31 39 0
-140 -134 -23 0
-140 -134 -31 0
-140 -134 -39 0
-141 126 0
-141 132 0
-126 -132 141 0
-141 22 30 0
-141 22 38 0
-141 30 38 0
-141 134 0
-142 127 0
-142 129 0
-127 -129 142 0
-142 134 29 30 31 37 38 39 45 46 47 0
-142 -134 -29 0
-142 -134 -30 0
-142 -134 -31 0
-142 -134 -37 0
-142 -134 -38 0
-142 -134 -39 0
-142 -134 -45 0
-142 -134 -46 0
-142 -134 -47 0
-143 127 0
-143 130 0
-127 -130 143 0
-143 33 41 0
-143 33 49 0
-143 41 49 0
-143 134 30 31 38 39 46 47 0
-143 -134 -30 0
-143 -134 -31 0
-143 -134 -38 0
-143 -134 -39 0
-143 -134 -46 0
-143 -134 -47 0
-144 127 0
-144 131 0
-127 -131 144 0
-144 29 37 0
-144 29 45 0
-144 37 45 0
-144 134 31 39 47 0
-144 -134 -31 0
-144 -134 -39 0
-144 -134 -47 0
-145 127 0
-145 132 0
-127 -132 145 0
-145 30 38 0
-145 30 46 0
-145 38 46 0
-145 134 0
-146 128 0
-146 129 0
-128 -129 146 0
-146 134 37 38 39 45 46 47 53 54 55 0
-146 -134 -37 0
-146 -134 -38 0
-146 -134 -39 0
-146 -134 -45 0
-146 -134 -46 0
-146 -134 -47 0
-146 -134 -53 0
-146 -134 -54 0
-146 -134 -55 0
-147 128 0
-147 130 0
-128 -130 147 0
-147 41 49 0
-147 41 57 0
-147 49 57 0
-147 134 38 39 46 47 54 55 0
-147 -134 -38 0
-147 -134 -39 0
-147 -134 -46 0
-147 -134 -47 0
-147 -134 -54 0
-147 -134 -55 0
-148 128 0
-148 131 0
-128 -131 148 0
-148 37 45 0
-148 37 53 0
-148 45 53 0
-148 134 39 47 55 0
-148 -134 -39 0
-148 -134 -47 0
-148 -134 -55 0
-149 128 0
-149 132 0
-128 -132 149 0
-149 38 46 0
-149 38 54 0
-149 46 54 0
-149 134 0
-17 11 70 104 133 0
-11 17 0
-70 17 0
-104 17 0
-133 17 0
-11 -70 0
-11 -104 0
-11 -133 0
-70 -104 0
-70 -133 0
-104 -133 0
-12 16 72 106 135 0
-16 12 0
-72 12 0
-106 12 0
-135 12 0
-16 -72 0
-16 -106 0
-16 -135 0
-72 -106 0
-72 -135 0
-106 -135 0
-13 18 73 107 136 0
-18 13 0
-73 13 0
-107 13 0
-136 13 0
-18 -73 0
-18 -107 0
-18 -136 0
-73 -107 0
-73 -136 0
-107 -136 0
-14 19 74 108 137 0
-19 14 0
-74 14 0
-108 14 0
-137 14 0
-19 -74 0
-19 -108 0
-19 -137 0
-74 -108 0
-74 -137 0
-108 -137 0
-25 20 75 104 109 133 138 0
-20 25 0
-75 25 0
-104 25 0
-109 25 0
-133 25 0
-138 25 0
-20 -75 0
-20 -104 0
-20 -109 0
-20 -133 0
-20 -138 0
-75 -104 0
-75 -109 0
-75 -133 0
-75 -138 0
-104 -109 0
-104 -133 0
-104 -138 0
-109 -133 0
-109 -138 0
-133 -138 0
-21 24 76 106 110 135 139 0
-24 21 0
-76 21 0
-106 21 0
-110 21 0
-135 21 0
-139 21 0
-24 -76 0
-24 -106 0
-24 -110 0
-24 -135 0
-24 -139 0
-76 -106 0
-76 -110 0
-76 -135 0
-76 -139 0
-106 -110 0
-106 -135 0
-106 -139 0
-110 -135 0
-110 -139 0
-135 -139 0
-22 26 77 107 111 136 140 0
-26 22 0
-77 22 0
-107 22 0
-111 22 0
-136 22 0
-140 22 0
-26 -77 0
-26 -107 0
-26 -111 0
-26 -136 0
-26 -140 0
-77 -107 0
-77 -111 0
-77 -136 0
-77 -140 0
-107 -111 0
-107 -136 0
-107 -140 0
-111 -136 0
-111 -140 0
-136 -140 0
-23 27 78 108 112 137 141 0
-27 23 0
-78 23 0
-108 23 0
-112 23 0
-137 23 0
-141 23 0
-27 -78 0
-27 -108 0
-27 -112 0
-27 -137 0
-27 -141 0
-78 -108 0
-78 -112 0
-78 -137 0
-78 -141 0
-108 -112 0
-108 -137 0
-108 -141 0
-112 -137 0
-112 -141 0
-137 -141 0
-33 28 79 109 113 133 138 142 0
-28 33 0
-79 33 0
-109 33 0
-113 33 0
-133 33 0
-138 33 0
-142 33 0
-28 -79 0
-28 -109 0
-28 -113 0
-28 -133 0
-28 -138 0
-28 -142 0
-79 -109 0
-79 -113 0
-79 -133 0
-79 -138 0
-79 -142 0
-109 -113 0
-109 -133 0
-109 -138 0
-109 -142 0
-113 -133 0
-113 -138 0
-113 -142 0
-133 -138 0
-133 -142 0
-138 -142 0
-29 32 80 110 114 135 139 143 0
-32 29 0
-80 29 0
-110 29 0
-114 29 0
-135 29 0
-139 29 0
-143 29 0
-32 -80 0
-32 -110 0
-32 -114 0
-32 -135 0
-32 -139 0
-32 -143 0
-80 -110 0
-80 -114 0
-80 -135 0
-80 -139 0
-80 -143 0
-110 -114 0
-110 -135 0
-110 -139 0
-110 -143 0
-114 -135 0
-114 -139 0
-114 -143 0
-135 -139 0
-135 -143 0
-139 -143 0
-30 34 81 111 115 136 140 144 0
-34 30 0
-81 30 0
-111 30 0
-115 30 0
-136 30 0
-140 30 0
-144 30 0
-34 -81 0
-34 -111 0
-34 -115 0
-34 -136 0
-34 -140 0
-34 -144 0
-81 -111 0
-81 -115 0
-81 -136 0
-81 -140 0
-81 -144 0
-111 -115 0
-111 -136 0
-111 -140 0
-111 -144 0
-115 -136 0
-115 -140 0
-115 -144 0
-136 -140 0
-136 -144 0
-140 -144 0
-31 35 82 112 116 137 141 145 0
-35 31 0
-82 31 0
-112 31 0
-116 31 0
-137 31 0
-141 31 0
-145 31 0
-35 -82 0
-35 -112 0
-35 -116 0
-35 -137 0
-35 -141 0
-35 -145 0
-82 -112 0
-82 -116 0
-82 -137 0
-82 -141 0
-82 -145 0
-112 -116 0
-112 -137 0
-112 -141 0
-112 -145 0
-116 -137 0
-116 -141 0
-116 -145 0
-137 -141 0
-137 -145 0
-141 -145 0
-41 36 83 113 117 138 142 146 0
-36 41 0
-83 41 0
-113 41 0
-117 41 0
-138 41 0
-142 41 0
-146 41 0
-36 -83 0
-36 -113 0
-36 -117 0
-36 -138 0
-36 -142 0
-36 -146 0
-83 -113 0
-83 -117 0
-83 -138 0
-83 -142 0
-83 -146 0
-113 -117 0
-113 -138 0
-113 -142 0
-113 -146 0
-117 -138 0
-117 -142 0
-117 -146 0
-138 -142 0
-138 -146 0
-142 -146 0
-37 40 84 114 118 139 143 147 0
-40 37 0
-84 37 0
-114 37 0
-118 37 0
-139 37 0
-143 37 0
-147 37 0
-40 -84 0
-40 -114 0
-40 -118 0
-40 -139 0
-40 -143 0
-40 -147 0
-84 -114 0
-84 -118 0
-84 -139 0
-84 -143 0
-84 -147 0
-114 -118 0
-114 -139 0
-114 -143 0
-114 -147 0
-118 -139 0
-118 -143 0
-118 -147 0
-139 -143 0
-139 -147 0
-143 -147 0
-38 42 85 115 119 140 144 148 0
-42 38 0
-85 38 0
-115 38 0
-119 38 0
-140 38 0
-144 38 0
-148 38 0
-42 -85 0
-42 -115 0
-42 -119 0
-42 -140 0
-42 -144 0
-42 -148 0
-85 -115 0
-85 -119 0
-85 -140 0
-85 -144 0
-85 -148 0
-115 -119 0
-115 -140 0
-115 -144 0
-115 -148 0
-119 -140 0
-119 -144 0
-119 -148 0
-140 -144 0
-140 -148 0
-144 -148 0
-39 43 86 116 120 141 145 149 0
-43 39 0
-86 39 0
-116 39 0
-120 39 0
-141 39 0
-145 39 0
-149 39 0
-43 -86 0
-43 -116 0
-43 -120 0
-43 -141 0
-43 -145 0
-43 -149 0
-86 -116 0
-86 -120 0
-86 -141 0
-86 -145 0
-86 -149 0
-116 -120 0
-116 -141 0
-116 -145 0
-116 -149 0
-120 -141 0
-120 -145 0
-120 -149 0
-141 -145 0
-141 -149 0
-145 -149 0
-49 44 87 117 121 142 146 0
-44 49 0
-87 49 0
-117 49 0
-121 49 0
-142 49 0
-146 49 0
-44 -87 0
-44 -117 0
-44 -121 0
-44 -142 0
-44 -146 0
-87 -117 0
-87 -121 0
-87 -142 0
-87 -146 0
-117 -121 0
-117 -142 0
-117 -146 0
-121 -142 0
-121 -146 0
-142 -146 0
-45 48 88 118 122 143 147 0
-48 45 0
-88 45 0
-118 45 0
-122 45 0
-143 45 0
-147 45 0
-48 -88 0
-48 -118 0
-48 -122 0
-48 -143 0
-48 -147 0
-88 -118 0
-88 -122 0
-88 -143 0
-88 -147 0
-118 -122 0
-118 -143 0
-118 -147 0
-122 -143 0
-122 -147 0
-143 -147 0
-46 50 89 119 123 144 148 0
-50 46 0
-89 46 0
-119 46 0
-123 46 0
-144 46 0
-148 46 0
-50 -89 0
-50 -119 0
-50 -123 0
-50 -144 0
-50 -148 0
-89 -119 0
-89 -123 0
-89 -144 0
-89 -148 0
-119 -123 0
-119 -144 0
-119 -148 0
-123 -144 0
-123 -148 0
-144 -148 0
-47 51 90 120 124 145 149 0
-51 47 0
-90 47 0
-120 47 0
-124 47 0
-145 47 0
-149 47 0
-51 -90 0
-51 -120 0
-51 -124 0
-51 -145 0
-51 -149 0
-90 -120 0
-90 -124 0
-90 -145 0
-90 -149 0
-120 -124 0
-120 -145 0
-120 -149 0
-124 -145 0
-124 -149 0
-145 -149 0
-57 52 91 121 146 0
-52 57 0
-91 57 0
-121 57 0
-146 57 0
-52 -91 0
-52 -121 0
-52 -146 0
-91 -121 0
-91 -146 0
-121 -146 0
-53 56 92 122 147 0
-56 53 0
-92 53 0
-122 53 0
-147 53 0
-56 -92 0
-56 -122 0
-56 -147 0
-92 -122 0
-92 -147 0
-122 -147 0
-54 58 93 123 148 0
-58 54 0
-93 54 0
-123 54 0
-148 54 0
-58 -93 0
-58 -123 0
-58 -148 0
-93 -123 0
-93 -148 0
-123 -148 0
-55 59 94 124 149 0
-59 55 0
-94 55 0
-124 55 0
-149 55 0
-59 -94 0
-59 -124 0
-59 -149 0
-94 -124 0
-94 -149 0
-124 -149 0
150 151 152 153 154 155 0
-150 -151 0
-150 -152 0
-150 -153 0
-150 -154 0
-150 -155 0
-151 -152 0
-151 -153 0
-151 -154 0
-151 -155 0
-152 -153 0
-152 -154 0
-152 -155 0
-153 -154 0
-153 -155 0
-154 -155 0
156 157 158 159 0
-156 -157 0
-156 -158 0
-156 -159 0
-157 -158 0
-157 -159 0
-158 -159 0
-160 150 0
-160 156 0
-150 -156 160 0
-160 164 161 162 163 0
-160 -164 -161 0
-160 -164 -162 0
-160 -164 -163 0
-165 150 0
-165 157 0
-150 -157 165 0
-165 166 0
-165 164 162 163 0
-165 -164 -162 0
-165 -164 -163 0
-167 150 0
-167 158 0
-150 -158 167 0
-167 161 0
-167 164 163 0
-167 -164 -163 0
-168 150 0
-168 159 0
-150 -159 168 0
-168 162 0
-168 164 0
-169 151 0
-169 156 0
-151 -156 169 0
-169 164 170 171 172 0
-169 -164 -170 0
-169 -164 -171 0
-169 -164 -172 0
-173 151 0
-173 157 0
-151 -157 173 0
-173 174 0
-173 164 171 172 0
-173 -164 -171 0
-173 -164 -172 0
-175 151 0
-175 158 0
-151 -158 175 0
-175 170 0
-175 164 172 0
-175 -164 -172 0
-176 151 0
-176 159 0
-151 -159 176 0
-176 171 0
-176 164 0
-177 152 0
-177 156 0
-152 -156 177 0
-177 164 178 179 180 0
-177 -164 -178 0
-177 -164 -179 0
-177 -164 -180 0
-181 152 0
-181 157 0
-152 -157 181 0
-181 182 0
-181 164 179 180 0
-181 -164 -179 0
-181 -164 -180 0
-183 152 0
-183 158 0
-152 -158 183 0
-183 178 0
-183 164 180 0
-183 -164 -180 0
-184 152 0
-184 159 0
-152 -159 184 0
-184 179 0
-184 164 0
-185 153 0
-185 156 0
-153 -156 185 0
-185 164 186 187 188 0
-185 -164 -186 0
-185 -164 -187 0
-185 -164 -188 0
-189 153 0
-189 157 0
-153 -157 189 0
-189 190 0
-189 164 187 188 0
-189 -164 -187 0
-189 -164 -188 0
-191 153 0
-191 158 0
-153 -158 191 0
-191 186 0
-191 164 188 0
-191 -164 -188 0
-192 153 0
-192 159 0
-153 -159 192 0
-192 187 0
-192 164 0
-193 154 0
-193 156 0
-154 -156 193 0
-193 164 194 195 196 0
-193 -164 -194 0
-193 -164 -195 0
-193 -164 -196 0
-197 154 0
-197 157 0
-154 -157 197 0
-197 198 0
-197 164 195 196 0
-197 -164 -195 0
-197 -164 -196 0
-199 154 0
-199 158 0
-154 -158 199 0
-199 194 0
-199 164 196 0
-199 -164 -196 0
-200 154 0
-200 159 0
-154 -159 200 0
-200 195 0
-200 164 0
-201 155 0
-201 156 0
-155 -156 201 0
-201 164 202 203 204 0
-201 -164 -202 0
-201 -164 -203 0
-201 -164 -204 0
-205 155 0
-205 157 0
-155 -157 205 0
-205 206 0
-205 164 203 204 0
-205 -164 -203 0
-205 -164 -204 0
-207 155 0
-207 158 0
-155 -158 207 0
-207 202 0
-207 164 204 0
-207 -164 -204 0
-208 155 0
-208 159 0
-155 -159 208 0
-208 203 0
-208 164 0
209 210 211 212 213 214 0
-209 -210 0
-209 -211 0
-209 -212 0
-209 -213 0
-209 -214 0
-210 -211 0
-210 -212 0
-210 -213 0
-210 -214 0
-211 -212 0
-211 -213 0
-211 -214 0
-212 -213 0
-212 -214 0
-213 -214 0
215 216 217 218 0
-215 -216 0
-215 -217 0
-215 -218 0
-216 -217 0
-216 -218 0
-217 -218 0
-219 209 0
-219 215 0
-209 -215 219 0
-219 220 161 162 163 0
-219 -220 -161 0
-219 -220 -162 0
-219 -220 -163 0
-221 209 0
-221 216 0
-209 -216 221 0
-221 166 0
-221 220 162 163 0
-221 -220 -162 0
-221 -220 -163 0
-222 209 0
-222 217 0
-209 -217 222 0
-222 161 0
-222 220 163 0
-222 -220 -163 0
-223 209 0
-223 218 0
-209 -218 223 0
-223 162 0
-223 220 0
-224 210 0
-224 215 0
-210 -215 224 0
-224 220 170 171 172 0
-224 -220 -170 0
-224 -220 -171 0
-224 -220 -172 0
-225 210 0
-225 216 0
-210 -216 225 0
-225 174 0
-225 220 171 172 0
-225 -220 -171 0
-225 -220 -172 0
-226 210 0
-226 217 0
-210 -217 226 0
-226 170 0
-226 220 172 0
-226 -220 -172 0
-227 210 0
-227 218 0
-210 -218 227 0
-227 171 0
-227 220 0
-228 211 0
-228 215 0
-211 -215 228 0
-228 220 178 179 180 0
-228 -220 -178 0
-228 -220 -179 0
-228 -220 -180 0
-229 211 0
-229 216 0
-211 -216 229 0
-229 182 0
-229 220 179 180 0
-229 -220 -179 0
-229 -220 -180 0
-230 211 0
-230 217 0
-211 -217 230 0
-230 178 0
-230 220 180 0
-230 -220 -180 0
-231 211 0
-231 218 0
-211 -218 231 0
-231 179 0
-231 220 0
-232 212 0
-232 215 0
-212 -215 232 0
-232 220 186 187 188 0
-232 -220 -186 0
-232 -220 -187 0
-232 -220 -188 0
-233 212 0
-233 216 0
-212 -216 233 0
-233 190 0
-233 220 187 188 0
-233 -220 -187 0
-233 -220 -188 0
-234 212 0
-234 217 0
-212 -217 234 0
-234 186 0
-234 220 188 0
-234 -220 -188 0
-235 212 0
-235 218 0
-212 -218 235 0
-235 187 0
-235 220 0
-236 213 0
-236 215 0
-213 -215 236 0
-236 220 194 195 196 0
-236 -220 -194 0
-236 -220 -195 0
-236 -220 -196 0
-237 213 0
-237 216 0
-213 -216 237 0
-237 198 0
-237 220 195 196 0
-237 -220 -195 0
-237 -220 -196 0
-238 213 0
-238 217 0
-213 -217 238 0
-238 194 0
-238 220 196 0
-238 -220 -196 0
-239 213 0
-239 218 0
-213 -218 239 0
-239 195 0
-239 220 0
-240 214 0
-240 215 0
-214 -215 240 0
-240 220 202 203 204 0
-240 -220 -202 0
-240 -220 -203 0
-240 -220 -204 0
-241 214 0
-241 216 0
-214 -216 241 0
-241 206 0
-241 220 203 204 0
-241 -220 -203 0
-241 -220 -204 0
-242 214 0
-242 217 0
-214 -217 242 0
-242 202 0
-242 220 204 0
-242 -220 -204 0
-243 214 0
-243 218 0
-214 -218 243 0
-243 203 0
-243 220 0
244 245 246 247 248 0
-244 -245 0
-244 -246 0
-244 -247 0
-244 -248 0
-245 -246 0
-245 -247 0
-245 -248 0
-246 -247 0
-246 -248 0
-247 -248 0
249 250 251 252 0
-249 -250 0
-249 -251 0
-249 -252 0
-250 -251 0
-250 -252 0
-251 -252 0
-253 244 0
-253 249 0
-244 -249 253 0
-253 254 161 162 163 170 171 172 0
-253 -254 -161 0
-253 -254 -162 0
-253 -254 -163 0
-253 -254 -170 0
-253 -254 -171 0
-253 -254 -172 0
-255 244 0
-255 250 0
-244 -250 255 0
-255 166 174 0
-255 254 162 163 171 172 0
-255 -254 -162 0
-255 -254 -163 0
-255 -254 -171 0
-255 -254 -172 0
-256 244 0
-256 251 0
-244 -251 256 0
-256 161 170 0
-256 254 163 172 0
-256 -254 -163 0
-256 -254 -172 0
-257 244 0
-257 252 0
-244 -252 257 0
-257 162 171 0
-257 254 0
-258 245 0
-258 249 0
-245 -249 258 0
-258 254 170 171 172 178 179 180 0
-258 -254 -170 0
-258 -254 -171 0
-258 -254 -172 0
-258 -254 -178 0
-258 -254 -179 0
-258 -254 -180 0
-259 245 0
-259 250 0
-245 -250 259 0
-259 174 182 0
-259 254 171 172 179 180 0
-259 -254 -171 0
-259 -254 -172 0
-259 -254 -179 0
-259 -254 -180 0
-260 245 0
-260 251 0
-245 -251 260 0
-260 170 178 0
-260 254 172 180 0
-260 -254 -172 0
-260 -254 -180 0
-261 245 0
-261 252 0
-245 -252 261 0
-261 171 179 0
-261 254 0
-262 246 0
-262 249 0
-246 -249 262 0
-262 254 178 179 180 186 187 188 0
-262 -254 -178 0
-262 -254 -179 0
-262 -254 -180 0
-262 -254 -186 0
-262 -254 -187 0
-262 -254 -188 0
-263 246 0
-263 250 0
-246 -250 263 0
-263 182 190 0
-263 254 179 180 187 188 0
-263 -254 -179 0
-263 -254 -180 0
-263 -254 -187 0
-263 -254 -188 0
-264 246 0
-264 251 0
-246 -251 264 0
-264 178 186 0
-264 254 180 188 0
-264 -254 -180 0
-264 -254 -188 0
-265 246 0
-265 252 0
-246 -252 265 0
-265 179 187 0
-265 254 0
-266 247 0
-266 249 0
-247 -249 266 0
-266 254 186 187 188 194 195 196 0
-266 -254 -186 0
-266 -254 -187 0
-266 -254 -188 0
-266 -254 -194 0
-266 -254 -195 0
-266 -254 -196 0
-267 247 0
-267 250 0
-247 -250 267 0
-267 190 198 0
-267 254 187 188 195 196 0
-267 -254 -187 0
-267 -254 -188 0
-267 -254 -195 0
-267 -254 -196 0
-268 247 0
-268 251 0
-247 -251 268 0
-268 186 194 0
-268 254 188 196 0
-268 -254 -188 0
-268 -254 -196 0
-269 247 0
-269 252 0
-247 -252 269 0
-269 187 195 0
-269 254 0
-270 248 0
-270 249 0
-248 -249 270 0
-270 254 194 195 196 202 203 204 0
-270 -254 -194 0
-270 -254 -195 0
-270 -254 -196 0
-270 -254 -202 0
-270 -254 -203 0
-270 -254 -204 0
-271 248 0
-271 250 0
-248 -250 271 0
-271 198 206 0
-271 254 195 196 203 204 0
-271 -254 -195 0
-271 -254 -196 0
-271 -254 -203 0
-271 -254 -204 0
-272 248 0
-272 251 0
-248 -251 272 0
-272 194 202 0
-272 254 196 204 0
-272 -254 -196 0
-272 -254 -204 0
-273 248 0
-273 252 0
-248 -252 273 0
-273 195 203 0
-273 254 0
274 275 276 277 0
-274 -275 0
-274 -276 0
-274 -277 0
-275 -276 0
-275 -277 0
-276 -277 0
278 279 280 281 0
-278 -279 0
-278 -280 0
-278 -281 0
-279 -280 0
-279 -281 0
-280 -281 0
-282 274 0
-282 278 0
-274 -278 282 0
-282 283 161 162 163 170 171 172 178 179 180 0
-282 -283 -161 0
-282 -283 -162 0
-282 -283 -163 0
-282 -283 -170 0
-282 -283 -171 0
-282 -283 -172 0
-282 -283 -178 0
-282 -283 -179 0
-282 -283 -180 0
-284 274 0
-284 279 0
-274 -279 284 0
-284 166 174 0
-284 166 182 0
-284 174 182 0
-284 283 162 163 171 172 179 180 0
-284 -283 -162 0
-284 -283 -163 0
-284 -283 -171 0
-284 -283 -172 0
-284 -283 -179 0
-284 -283 -180 0
-285 274 0
-285 280 0
-274 -280 285 0
-285 161 170 0
-285 161 178 0
-285 170 178 0
-285 283 163 172 180 0
-285 -283 -163 0
-285 -283 -172 0
-285 -283 -180 0
-286 274 0
-286 281 0
-274 -281 286 0
-286 162 171 0
-286 162 179 0
-286 171 179 0
-286 283 0
-287 275 0
-287 278 0
-275 -278 287 0
-287 283 170 171 172 178 179 180 186 187 188 0
-287 -283 -170 0
-287 -283 -171 0
-287 -283 -172 0
-287 -283 -178 0
-287 -283 -179 0
-287 -283 -180 0
-287 -283 -186 0
-287 -283 -187 0
-287 -283 -188 0
-288 275 0
-288 279 0
-275 -279 288 0
-288 174 182 0
-288 174 190 0
-288 182 190 0
-288 283 171 172 179 180 187 188 0
-288 -283 -171 0
-288 -283 -172 0
-288 -283 -179 0
-288 -283 -180 0
-288 -283 -187 0
-288 -283 -188 0
-289 275 0
-289 280 0
-275 -280 289 0
-289 170 178 0
-289 170 186 0
-289 178 186 0
-289 283 172 180 188 0
-289 -283 -172 0
-289 -283 -180 0
-289 -283 -188 0
-290 275 0
-290 281 0
-275 -281 290 0
-290 171 179 0
-290 171 187 0
-290 179 187 0
-290 283 0
-291 276 0
-291 278 0
-276 -278 291 0
-291 283 178 179 180 186 187 188 194 195 196 0
-291 -283 -178 0
-291 -283 -179 0
-291 -283 -180 0
-291 -283 -186 0
-291 -283 -187 0
-291 -283 -188 0
-291 -283 -194 0
-291 -283 -195 0
-291 -283 -196 0
-292 276 0
-292 279 0
-276 -279 292 0
-292 182 190 0
-292 182 198 0
-292 190 198 0
-292 283 179 180 187 188 195 196 0
-292 -283 -179 0
-292 -283 -180 0
-292 -283 -187 0
-292 -283 -188 0
-292 -283 -195 0
-292 -283 -196 0
-293 276 0
-293 280 0
-276 -280 293 0
-293 178 186 0
-293 178 194 0
-293 186 194 0
-293 283 180 188 196 0
-293 -283 -180 0
-293 -283 -188 0
-293 -283 -196 0
-294 276 0
-294 281 0
-276 -281 294 0
-294 179 187 0
-294 179 195 0
-294 187 195 0
-294 283 0
-295 277 0
-295 278 0
-277 -278 295 0
-295 283 186 187 188 194 195 196 202 203 204 0
-295 -283 -186 0
-295 -283 -187 0
-295 -283 -188 0
-295 -283 -194 0
-295 -283 -195 0
-295 -283 -196 0
-295 -283 -202 0
-295 -283 -203 0
-295 -283 -204 0
-296 277 0
-296 279 0
-277 -279 296 0
-296 190 198 0
-296 190 206 0
-296 198 206 0
-296 283 187 188 195 196 203 204 0
-296 -283 -187 0
-296 -283 -188 0
-296 -283 -195 0
-296 -283 -196 0
-296 -283 -203 0
-296 -283 -204 0
-297 277 0
-297 280 0
-277 -280 297 0
-297 186 194 0
-297 186 202 0
-297 194 202 0
-297 283 188 196 204 0
-297 -283 -188 0
-297 -283 -196 0
-297 -283 -204 0
-298 277 0
-298 281 0
-277 -281 298 0
-298 187 195 0
-298 187 203 0
-298 195 203 0
-298 283 0
-166 160 219 253 282 0
-160 166 0
-219 166 0
-253 166 0
-282 166 0
-160 -219 0
-160 -253 0
-160 -282 0
-219 -253 0
-219 -282 0
-253 -282 0
-161 165 221 255 284 0
-165 161 0
-221 161 0
-255 161 0
-284 161 0
-165 -221 0
-165 -255 0
-165 -284 0
-221 -255 0
-221 -284 0
-255 -284 0
-162 167 222 256 285 0
-167 162 0
-222 162 0
-256 162 0
-285 162 0
-167 -222 0
-167 -256 0
-167 -285 0
-222 -256 0
-222 -285 0
-256 -285 0
-163 168 223 257 286 0
-168 163 0
-223 163 0
-257 163 0
-286 163 0
-168 -223 0
-168 -257 0
-168 -286 0
-223 -257 0
-223 -286 0
-257 -286 0
-174 169 224 253 258 282 287 0
-169 174 0
-224 174 0
-253 174 0
-258 174 0
-282 174 0
-287 174 0
-169 -224 0
-169 -253 0
-169 -258 0
-169 -282 0
-169 -287 0
-224 -253 0
-224 -258 0
-224 -282 0
-224 -287 0
-253 -258 0
-253 -282 0
-253 -287 0
-258 -282 0
-258 -287 0
-282 -287 0
-170 173 225 255 259 284 288 0
-173 170 0
-225 170 0
-255 170 0
-259 170 0
-284 170 0
-288 170 0
-173 -225 0
-173 -255 0
-173 -259 0
-173 -284 0
-173 -288 0
-225 -255 0
-225 -259 0
-225 -284 0
-225 -288 0
-255 -259 0
-255 -284 0
-255 -288 0
-259 -284 0
-259 -288 0
-284 -288 0
-171 175 226 256 260 285 289 0
-175 171 0
-226 171 0
-256 171 0
-260 171 0
-285 171 0
-289 171 0
-175 -226 0
-175 -256 0
-175 -260 0
-175 -285 0
-175 -289 0
-226 -256 0
-226 -260 0
-226 -285 0
-226 -289 0
-256 -260 0
-256 -285 0
-256 -289 0
-260 -285 0
-260 -289 0
-285 -289 0
-172 176 227 257 261 286 290 0
-176 172 0
-227 172 0
-257 172 0
-261 172 0
-286 172 0
-290 172 0
-176 -227 0
-176 -257 0
-176 -261 0
-176 -286 0
-176 -290 0
-227 -257 0
-227 -261 0
-227 -286 0
-227 -290 0
-257 -261 0
-257 -286 0
-257 -290 0
-261 -286 0
-261 -290 0
-286 -290 0
-182 177 228 258 262 282 287 291 0
-177 182 0
-228 182 0
-258 182 0
-262 182 0
-282 182 0
-287 182 0
-291 182 0
-177 -228 0
-177 -258 0
-177 -262 0
-177 -282 0
-177 -287 0
-177 -291 0
-228 -258 0
-228 -262 0
-228 -282 0
-228 -287 0
-228 -291 0
-258 -262 0
-258 -282 0
-258 -287 0
-258 -291 0
-262 -282 0
-262 -287 0
-262 -291 0
-282 -287 0
-282 -291 0
-287 -291 0
-178 181 229 259 263 284 288 292 0
-181 178 0
-229 178 0
-259 178 0
-263 178 0
-284 178 0
-288 178 0
-292 178 0
-181 -229 0
-181 -259 0
-181 -263 0
-181 -284 0
-181 -288 0
-181 -292 0
-229 -259 0
-229 -263 0
-229 -284 0
-229 -288 0
-229 -292 0
-259 -263 0
-259 -284 0
-259 -288 0
-259 -292 0
-263 -284 0
-263 -288 0
-263 -292 0
-284 -288 0
-284 -292 0
-288 -292 0
-179 183 230 260 264 285 289 293 0
-183 179 0
-230 179 0
-260 179 0
-264 179 0
-285 179 0
-289 179 0
-293 179 0
-183 -230 0
-183 -260 0
-183 -264 0
-183 -285 0
-183 -289 0
-183 -293 0
-230 -260 0
-230 -264 0
-230 -285 0
-230 -289 0
-230 -293 0
-260 -264 0
-260 -285 0
-260 -289 0
-260 -293 0
-264 -285 0
-264 -289 0
-264 -293 0
-285 -289 0
-285 -293 0
-289 -293 0
-180 184 231 261 265 286 290 294 0
-184 180 0
-231 180 0
-261 180 0
-265 180 0
-286 180 0
-290 180 0
-294 180 0
-184 -231 0
-184 -261 0
-184 -265 0
-184 -286 0
-184 -290 0
-184 -294 0
-231 -261 0
-231 -265 0
-231 -286 0
-231 -290 0
-231 -294 0
-261 -265 0
-261 -286 0
-261 -290 0
-261 -294 0
-265 -286 0
-265 -290 0
-265 -294 0
-286 -290 0
-286 -294 0
-290 -294 0
-190 185 232 262 266 287 291 295 0
-185 190 0
-232 190 0
-262 190 0
-266 190 0
-287 190 0
-291 190 0
-295 190 0
-185 -232 0
-185 -262 0
-185 -266 0
-185 -287 0
-185 -291 0
-185 -295 0
-232 -262 0
-232 -266 0
-232 -287 0
-232 -291 0
-232 -295 0
-262 -266 0
-262 -287 0
-262 -291 0
-262 -295 0
-266 -287 0
-266 -291 0
-266 -295 0
-287 -291 0
-287 -295 0
-291 -295 0
-186 189 233 263 267 288 292 296 0
-189 186 0
-233 186 0
-263 186 0
-267 186 0
-288 186 0
-292 186 0
-296 186 0
-189 -233 0
-189 -263 0
-189 -267 0
-189 -288 0
-189 -292 0
-189 -296 0
-233 -263 0
-233 -267 0
-233 -288 0
-233 -292 0
-233 -296 0
-263 -267 0
-263 -288 0
-263 -292 0
-263 -296 0
-267 -288 0
-267 -292 0
-267 -296 0
-288 -292 0
-288 -296 0
-292 -296 0
-187 191 234 264 268 289 293 297 0
-191 187 0
-234 187 0
-264 187 0
-268 187 0
-289 187 0
-293 187 0
-297 187 0
-191 -234 0
-191 -264 0
-191 -268 0
-191 -289 0
-191 -293 0
-191 -297 0
-234 -264 0
-234 -268 0
-234 -289 0
-234 -293 0
-234 -297 0
-264 -268 0
-264 -289 0
-264 -293 0
-264 -297 0
-268 -289 0
-268 -293 0
-268 -297 0
-289 -293 0
-289 -297 0
-293 -297 0
-188 192 235 265 269 290 294 298 0
-192 188 0
-235 188 0
-265 188 0
-269 188 0
-290 188 0
-294 188 0
-298 188 0
-192 -235 0
-192 -265 0
-192 -269 0
-192 -290 0
-192 -294 0
-192 -298 0
-235 -265 0
-235 -269 0
-235 -290 0
-235 -294 0
-235 -298 0
-265 -269 0
-265 -290 0
-265 -294 0
-265 -298 0
-269 -290 0
-269 -294 0
-269 -298 0
-290 -294 0
-290 -298 0
-294 -298 0
-198 193 236 266 270 291 295 0
-193 198 0
-236 198 0
-266 198 0
-270 198 0
-291 198 0
-295 198 0
-193 -236 0
-193 -266 0
-193 -270 0
-193 -291 0
-193 -295 0
-236 -266 0
-236 -270 0
-236 -291 0
-236 -295 0
-266 -270 0
-266 -291 0
-266 -295 0
-270 -291 0
-270 -295 0
-291 -295 0
-194 197 237 267 271 292 296 0
-197 194 0
-237 194 0
-267 194 0
-271 194 0
-292 194 0
-296 194 0
-197 -237 0
-197 -267 0
-197 -271 0
-197 -292 0
-197 -296 0
-237 -267 0
-237 -271 0
-237 -292 0
-237 -296 0
-267 -271 0
-267 -292 0
-267 -296 0
-271 -292 0
-271 -296 0
-292 -296 0
-195 199 238 268 272 293 297 0
-199 195 0
-238 195 0
-268 195 0
-272 195 0
-293 195 0
-297 195 0
-199 -238 0
-199 -268 0
-199 -272 0
-199 -293 0
-199 -297 0
-238 -268 0
-238 -272 0
-238 -293 0
-238 -297 0
-268 -272 0
-268 -293 0
-268 -297 0
-272 -293 0
-272 -297 0
-293 -297 0
-196 200 239 269 273 294 298 0
-200 196 0
-239 196 0
-269 196 0
-273 196 0
-294 196 0
-298 196 0
-200 -239 0
-200 -269 0
-200 -273 0
-200 -294 0
-200 -298 0
-239 -269 0
-239 -273 0
-239 -294 0
-239 -298 0
-269 -273 0
-269 -294 0
-269 -298 0
-273 -294 0
-273 -298 0
-294 -298 0
-206 201 240 270 295 0
-201 206 0
-240 206 0
-270 206 0
-295 206 0
-201 -240 0
-201 -270 0
-201 -295 0
-240 -270 0
-240 -295 0
-270 -295 0
-202 205 241 271 296 0
-205 202 0
-241 202 0
-271 202 0
-296 202 0
-205 -241 0
-205 -271 0
-205 -296 0
-241 -271 0
-241 -296 0
-271 -296 0
-203 207 242 272 297 0
-207 203 0
-242 203 0
-272 203 0
-297 203 0
-207 -242 0
-207 -272 0
-207 -297 0
-242 -272 0
-242 -297 0
-272 -297 0
-204 208 243 273 298 0
-208 204 0
-243 204 0
-273 204 0
-298 204 0
-208 -243 0
-208 -273 0
-208 -298 0
-243 -273 0
-243 -298 0
-273 -298 0
299 300 301 302 303 304 0
-299 -300 0
-299 -301 0
-299 -302 0
-299 -303 0
-299 -304 0
-300 -301 0
-300 -302 0
-300 -303 0
-300 -304 0
-301 -302 0
-301 -303 0
-301 -304 0
-302 -303 0
-302 -304 0
-303 -304 0
305 306 307 308 0
-305 -306 0
-305 -307 0
-305 -308 0
-306 -307 0
-306 -308 0
-307 -308 0
-309 299 0
-309 305 0
-299 -305 309 0
-309 313 310 311 312 0
-309 -313 -310 0
-309 -313 -311 0
-309 -313 -312 0
-314 299 0
-314 306 0
-299 -306 314 0
-314 315 0
-314 313 311 312 0
-314 -313 -311 0
-314 -313 -312 0
-316 299 0
-316 307 0
-299 -307 316 0
-316 310 0
-316 313 312 0
-316 -313 -312 0
-317 299 0
-317 308 0
-299 -308 317 0
-317 311 0
-317 313 0
-318 300 0
-318 305 0
-300 -305 318 0
-318 313 319 320 321 0
-318 -313 -319 0
-318 -313 -320 0
-318 -313 -321 0
-322 300 0
-322 306 0
-300 -306 322 0
-322 323 0
-322 313 320 321 0
-322 -313 -320 0
-322 -313 -321 0
-324 300 0
-324 307 0
-300 -307 324 0
-324 319 0
-324 313 321 0
-324 -313 -321 0
-325 300 0
-325 308 0
-300 -308 325 0
-325 320 0
-325 313 0
-326 301 0
-326 305 0
-301 -305 326 0
-326 313 327 328 329 0
-326 -313 -327 0
-326 -313 -328 0
-326 -313 -329 0
-330 301 0
-330 306 0
-301 -306 330 0
-330 331 0
-330 313 328 329 0
-330 -313 -328 0
-330 -313 -329 0
-332 301 0
-332 307 0
-301 -307 332 0
-332 327 0
-332 313 329 0
-332 -313 -329 0
-333 301 0
-333 308 0
-301 -308 333 0
-333 328 0
-333 313 0
-334 302 0
-334 305 0
-302 -305 334 0
-334 313 335 336 337 0
-334 -313 -335 0
-334 -313 -336 0
-334 -313 -337 0
-338 302 0
-338 306 0
-302 -306 338 0
-338 339 0
-338 313 336 337 0
-338 -313 -336 0
-338 -313 -337 0
-340 302 0
-340 307 0
-302 -307 340 0
-340 335 0
-340 313 337 0
-340 -313 -337 0
-341 302 0
-341 308 0
-302 -308 341 0
-341 336 0
-341 313 0
-342 303 0
-342 305 0
-303 -305 342 0
-342 313 343 344 345 0
-342 -313 -343 0
-342 -313 -344 0
-342 -313 -345 0
-346 303 0
-346 306 0
-303 -306 346 0
-346 347 0
-346 313 344 345 0
-346 -313 -344 0
-346 -313 -345 0
-348 303 0
-348 307 0
-303 -307 348 0
-348 343 0
-348 313 345 0
-348 -313 -345 0
-349 303 0
-349 308 0
-303 -308 349 0
-349 344 0
-349 313 0
-350 304 0
-350 305 0
-304 -305 350 0
-350 313 351 352 353 0
-350 -313 -351 0
-350 -313 -352 0
-350 -313 -353 0
-354 304 0
-354 306 0
-304 -306 354 0
-354 355 0
-354 313 352 353 0
-354 -313 -352 0
-354 -313 -353 0
-356 304 0
-356 307 0
-304 -307 356 0
-356 351 0
-356 313 353 0
-356 -313 -353 0
-357 304 0
-357 308 0
-304 -308 357 0
-357 352 0
-357 313 0
358 359 360 361 362 363 0
-358 -359 0
-358 -360 0
-358 -361 0
-358 -362 0
-358 -363 0
-359 -360 0
-359 -361 0
-359 -362 0
-359 -363 0
-360 -361 0
-360 -362 0
-360 -363 0
-361 -362 0
-361 -363 0
-362 -363 0
364 365 366 367 0
-364 -365 0
-364 -366 0
-364 -367 0
-365 -366 0
-365 -367 0
-366 -367 0
-368 358 0
-368 364 0
-358 -364 368 0
-368 369 310 311 312 0
-368 -369 -310 0
-368 -369 -311 0
-368 -369 -312 0
-370 358 0
-370 365 0
-358 -365 370 0
-370 315 0
-370 369 311 312 0
-370 -369 -311 0
-370 -369 -312 0
-371 358 0
-371 366 0
-358 -366 371 0
-371 310 0
-371 369 312 0
-371 -369 -312 0
-372 358 0
-372 367 0
-358 -367 372 0
-372 311 0
-372 369 0
-373 359 0
-373 364 0
-359 -364 373 0
-373 369 319 320 321 0
-373 -369 -319 0
-373 -369 -320 0
-373 -369 -321 0
-374 359 0
-374 365 0
-359 -365 374 0
-374 323 0
-374 369 320 321 0
-374 -369 -320 0
-374 -369 -321 0
-375 359 0
-375 366 0
-359 -366 375 0
-375 319 0
-375 369 321 0
-375 -369 -321 0
-376 359 0
-376 367 0
-359 -367 376 0
-376 320 0
-376 369 0
-377 360 0
-377 364 0
-360 -364 377 0
-377 369 327 328 329 0
-377 -369 -327 0
-377 -369 -328 0
-377 -369 -329 0
-378 360 0
-378 365 0
-360 -365 378 0
-378 331 0
-378 369 328 329 0
-378 -369 -328 0
-378 -369 -329 0
-379 360 0
-379 366 0
-360 -366 379 0
-379 327 0
-379 369 329 0
-379 -369 -329 0
-380 360 0
-380 367 0
-360 -367 380 0
-380 328 0
-380 369 0
-381 361 0
-381 364 0
-361 -364 381 0
-381 369 335 336 337 0
-381 -369 -335 0
-381 -369 -336 0
-381 -369 -337 0
-382 361 0
-382 365 0
-361 -365 382 0
-382 339 0
-382 369 336 337 0
-382 -369 -336 0
-382 -369 -337 0
-383 361 0
-383 366 0
-361 -366 383 0
-383 335 0
-383 369 337 0
-383 -369 -337 0
-384 361 0
-384 367 0
-361 -367 384 0
-384 336 0
-384 369 0
-385 362 0
-385 364 0
-362 -364 385 0
-385 369 343 344 345 0
-385 -369 -343 0
-385 -369 -344 0
-385 -369 -345 0
-386 362 0
-386 365 0
-362 -365 386 0
-386 347 0
-386 369 344 345 0
-386 -369 -344 0
-386 -369 -345 0
-387 362 0
-387 366 0
-362 -366 387 0
-387 343 0
-387 369 345 0
-387 -369 -345 0
-388 362 0
-388 367 0
-362 -367 388 0
-388 344 0
-388 369 0
-389 363 0
-389 364 0
-363 -364 389 0
-389 369 351 352 353 0
-389 -369 -351 0
-389 -369 -352 0
-389 -369 -353 0
-390 363 0
-390 365 0
-363 -365 390 0
-390 355 0
-390 369 352 353 0
-390 -369 -352 0
-390 -369 -353 0
-391 363 0
-391 366 0
-363 -366 391 0
-391 351 0
-391 369 353 0
-391 -369 -353 0
-392 363 0
-392 367 0
-363 -367 392 0
-392 352 0
-392 369 0
393 394 395 396 397 0
-393 -394 0
-393 -395 0
-393 -396 0
-393 -397 0
-394 -395 0
-394 -396 0
-394 -397 0
-395 -396 0
-395 -397 0
-396 -397 0
398 399 400 401 0
-398 -399 0
-398 -400 0
-398 -401 0
-399 -400 0
-399 -401 0
-400 -401 0
-402 393 0
-402 398 0
-393 -398 402 0
-402 403 310 311 312 319 320 321 0
-402 -403 -310 0
-402 -403 -311 0
-402 -403 -312 0
-402 -403 -319 0
-402 -403 -320 0
-402 -403 -321 0
-404 393 0
-404 399 0
-393 -399 404 0
-404 315 323 0
-404 403 311 312 320 321 0
-404 -403 -311 0
-404 -403 -312 0
-404 -403 -320 0
-404 -403 -321 0
-405 393 0
-405 400 0
-393 -400 405 0
-405 310 319 0
-405 403 312 321 0
-405 -403 -312 0
-405 -403 -321 0
-406 393 0
-406 401 0
-393 -401 406 0
-406 311 320 0
-406 403 0
-407 394 0
-407 398 0
-394 -398 407 0
-407 403 319 320 321 327 328 329 0
-407 -403 -319 0
-407 -403 -320 0
-407 -403 -321 0
-407 -403 -327 0
-407 -403 -328 0
-407 -403 -329 0
-408 394 0
-408 399 0
-394 -399 408 0
-408 323 331 0
-408 403 320 321 328 329 0
-408 -403 -320 0
-408 -403 -321 0
-408 -403 -328 0
-408 -403 -329 0
-409 394 0
-409 400 0
-394 -400 409 0
-409 319 327 0
-409 403 321 329 0
-409 -403 -321 0
-409 -403 -329 0
-410 394 0
-410 401 0
-394 -401 410 0
-410 320 328 0
-410 403 0
-411 395 0
-411 398 0
-395 -398 411 0
-411 403 327 328 329 335 336 337 0
-411 -403 -327 0
-411 -403 -328 0
-411 -403 -329 0
-411 -403 -335 0
-411 -403 -336 0
-411 -403 -337 0
-412 395 0
-412 399 0
-395 -399 412 0
-412 331 339 0
-412 403 328 329 336 337 0
-412 -403 -328 0
-412 -403 -329 0
-412 -403 -336 0
-412 -403 -337 0
-413 395 0
-413 400 0
-395 -400 413 0
-413 327 335 0
-413 403 329 337 0
-413 -403 -329 0
-413 -403 -337 0
-414 395 0
-414 401 0
-395 -401 414 0
-414 328 336 0
-414 403 0
-415 396 0
-415 398 0
-396 -398 415 0
-415 403 335 336 337 343 344 345 0
-415 -403 -335 0
-415 -403 -336 0
-415 -403 -337 0
-415 -403 -343 0
-415 -403 -344 0
-415 -403 -345 0
-416 396 0
-416 399 0
-396 -399 416 0
-416 339 347 0
-416 403 336 337 344 345 0
-416 -403 -336 0
-416 -403 -337 0
-416 -403 -344 0
-416 -403 -345 0
-417 396 0
-417 400 0
-396 -400 417 0
-417 335 343 0
-417 403 337 345 0
-417 -403 -337 0
-417 -403 -345 0
-418 396 0
-418 401 0
-396 -401 418 0
-418 336 344 0
-418 403 0
-419 397 0
-419 398 0
-397 -398 419 0
-419 403 343 344 345 351 352 353 0
-419 -403 -343 0
-419 -403 -344 0
-419 -403 -345 0
-419 -403 -351 0
-419 -403 -352 0
-419 -403 -353 0
-420 397 0
-420 399 0
-397 -399 420 0
-420 347 355 0
-420 403 344 345 352 353 0
-420 -403 -344 0
-420 -403 -345 0
-420 -403 -352 0
-420 -403 -353 0
-421 397 0
-421 400 0
-397 -400 421 0
-421 343 351 0
-421 403 345 353 0
-421 -403 -345 0
-421 -403 -353 0
-422 397 0
-422 401 0
-397 -401 422 0
-422 344 352 0
-422 403 0
423 424 425 426 0
-423 -424 0
-423 -425 0
-423 -426 0
-424 -425 0
-424 -426 0
-425 -426 0
427 428 429 430 0
-427 -428 0
-427 -429 0
-427 -430 0
-428 -429 0
-428 -430 0
-429 -430 0
-431 423 0
-431 427 0
-423 -427 431 0
-431 432 310 311 312 319 320 321 327 328 329 0
-431 -432 -310 0
-431 -432 -311 0
-431 -432 -312 0
-431 -432 -319 0
-431 -432 -320 0
-431 -432 -321 0
-431 -432 -327 0
-431 -432 -328 0
-431 -432 -329 0
-433 423 0
-433 428 0
-423 -428 433 0
-433 315 323 0
-433 315 331 0
-433 323 331 0
-433 432 311 312 320 321 328 329 0
-433 -432 -311 0
-433 -432 -312 0
-433 -432 -320 0
-433 -432 -321 0
-433 -432 -328 0
-433 -432 -329 0
-434 423 0
-434 429 0
-423 -429 434 0
-434 310 319 0
-434 310 327 0
-434 319 327 0
-434 432 312 321 329 0
-434 -432 -312 0
-434 -432 -321 0
-434 -432 -329 0
-435 423 0
-435 430 0
-423 -430 435 0
-435 311 320 0
-435 311 328 0
-435 320 328 0
-435 432 0
-436 424 0
-436 427 0
-424 -427 436 0
-436 432 319 320 321 327 328 329 335 336 337 0
-436 -432 -319 0
-436 -432 -320 0
-436 -432 -321 0
-436 -432 -327 0
-436 -432 -328 0
-436 -432 -329 0
-436 -432 -335 0
-436 -432 -336 0
-436 -432 -337 0
-437 424 0
-437 428 0
-424 -428 437 0
-437 323 331 0
-437 323 339 0
-437 331 339 0
-437 432 320 321 328 329 336 337 0
-437 -432 -320 0
-437 -432 -321 0
-437 -432 -328 0
-437 -432 -329 0
-437 -432 -336 0
-437 -432 -337 0
-438 424 0
-438 429 0
-424 -429 438 0
-438 319 327 0
-438 319 335 0
-438 327 335 0
-438 432 321 329 337 0
-438 -432 -321 0
-438 -432 -329 0
-438 -432 -337 0
-439 424 0
-439 430 0
-424 -430 439 0
-439 320 328 0
-439 320 336 0
-439 328 336 0
-439 432 0
-440 425 0
-440 427 0
-425 -427 440 0
-440 432 327 328 329 335 336 337 343 344 345 0
-440 -432 -327 0
-440 -432 -328 0
-440 -432 -329 0
-440 -432 -335 0
-440 -432 -336 0
-440 -432 -337 0
-440 -432 -343 0
-440 -432 -344 0
-440 -432 -345 0
-441 425 0
-441 428 0
-425 -428 441 0
-441 331 339 0
-441 331 347 0
-441 339 347 0
-441 432 328 329 336 337 344 345 0
-441 -432 -328 0
-441 -432 -329 0
-441 -432 -336 0
-441 -432 -337 0
-441 -432 -344 0
-441 -432 -345 0
-442 425 0
-442 429 0
-425 -429 442 0
-442 327 335 0
-442 327 343 0
-442 335 343 0
-442 432 329 337 345 0
-442 -432 -329 0
-442 -432 -337 0
-442 -432 -345 0
-443 425 0
-443 430 0
-425 -430 443 0
-443 328 336 0
-443 328 344 0
-443 336 344 0
-443 432 0
-444 426 0
-444 427 0
-426 -427 444 0
-444 432 335 336 337 343 344 345 351 352 353 0
-444 -432 -335 0
-444 -432 -336 0
-444 -432 -337 0
-444 -432 -343 0
-444 -432 -344 0
-444 -432 -345 0
-444 -432 -351 0
-444 -432 -352 0
-444 -432 -353 0
-445 426 0
-445 428 0
-426 -428 445 0
-445 339 347 0
-445 339 355 0
-445 347 355 0
-445 432 336 337 344 345 352 353 0
-445 -432 -336 0
-445 -432 -337 0
-445 -432 -344 0
-445 -432 -345 0
-445 -432 -352 0
-445 -432 -353 0
-446 426 0
-446 429 0
-426 -429 446 0
-446 335 343 0
-446 335 351 0
-446 343 351 0
-446 432 337 345 353 0
-446 -432 -337 0
-446 -432 -345 0
-446 -432 -353 0
-447 426 0
-447 430 0
-426 -430 447 0
-447 336 344 0
-447 336 352 0
-447 344 352 0
-447 432 0
-315 309 368 402 431 0
-309 315 0
-368 315 0
-402 315 0
-431 315 0
-309 -368 0
-309 -402 0
-309 -431 0
-368 -402 0
-368 -431 0
-402 -431 0
-310 314 370 404 433 0
-314 310 0
-370 310 0
-404 310 0
-433 310 0
-314 -370 0
-314 -404 0
-314 -433 0
-370 -404 0
-370 -433 0
-404 -433 0
-311 316 371 405 434 0
-316 311 0
-371 311 0
-405 311 0
-434 311 0
-316 -371 0
-316 -405 0
-316 -434 0
-371 -405 0
-371 -434 0
-405 -434 0
-312 317 372 406 435 0
-317 312 0
-372 312 0
-406 312 0
-435 312 0
-317 -372 0
-317 -406 0
-317 -435 0
-372 -406 0
-372 -435 0
-406 -435 0
-323 318 373 402 407 431 436 0
-318 323 0
-373 323 0
-402 323 0
-407 323 0
-431 323 0
-436 323 0
-318 -373 0
-318 -402 0
-318 -407 0
-318 -431 0
-318 -436 0
-373 -402 0
-373 -407 0
-373 -431 0
-373 -436 0
-402 -407 0
-402 -431 0
-402 -436 0
-407 -431 0
-407 -436 0
-431 -436 0
-319 322 374 404 408 433 437 0
-322 319 0
-374 319 0
-404 319 0
-408 319 0
-433 319 0
-437 319 0
-322 -374 0
-322 -404 0
-322 -408 0
-322 -433 0
-322 -437 0
-374 -404 0
-374 -408 0
-374 -433 0
-374 -437 0
-404 -408 0
-404 -433 0
-404 -437 0
-408 -433 0
-408 -437 0
-433 -437 0
-320 324 375 405 409 434 438 0
-324 320 0
-375 320 0
-405 320 0
-409 320 0
-434 320 0
-438 320 0
-324 -375 0
-324 -405 0
-324 -409 0
-324 -434 0
-324 -438 0
-375 -405 0
-375 -409 0
-375 -434 0
-375 -438 0
-405 -409 0
-405 -434 0
-405 -438 0
-409 -434 0
-409 -438 0
-434 -438 0
-321 325 376 406 410 435 439 0
-325 321 0
-376 321 0
-406 321 0
-410 321 0
-435 321 0
-439 321 0
-325 -376 0
-325 -406 0
-325 -410 0
-325 -435 0
-325 -439 0
-376 -406 0
-376 -410 0
-376 -435 0
-376 -439 0
-406 -410 0
-406 -435 0
-406 -439 0
-410 -435 0
-410 -439 0
-435 -439 0
-331 326 377 407 411 431 436 440 0
-326 331 0
-377 331 0
-407 331 0
-411 331 0
-431 331 0
-436 331 0
-440 331 0
-326 -377 0
-326 -407 0
-326 -411 0
-326 -431 0
-326 -436 0
-326 -440 0
-377 -407 0
-377 -411 0
-377 -431 0
-377 -436 0
-377 -440 0
-407 -411 0
-407 -431 0
-407 -436 0
-407 -440 0
-411 -431 0
-411 -436 0
-411 -440 0
-431 -436 0
-431 -440 0
-436 -440 0
-327 330 378 408 412 433 437 441 0
-330 327 0
-378 327 0
-408 327 0
-412 327 0
-433 327 0
-437 327 0
-441 327 0
-330 -378 0
-330 -408 0
-330 -412 0
-330 -433 0
-330 -437 0
-330 -441 0
-378 -408 0
-378 -412 0
-378 -433 0
-378 -437 0
-378 -441 0
-408 -412 0
-408 -433 0
-408 -437 0
-408 -441 0
-412 -433 0
-412 -437 0
-412 -441 0
-433 -437 0
-433 -441 0
-437 -441 0
-328 332 379 409 413 434 438 442 0
-332 328 0
-379 328 0
-409 328 0
-413 328 0
-434 328 0
-438 328 0
-442 328 0
-332 -379 0
-332 -409 0
-332 -413 0
-332 -434 0
-332 -438 0
-332 -442 0
-379 -409 0
-379 -413 0
-379 -434 0
-379 -438 0
-379 -442 0
-409 -413 0
-409 -434 0
-409 -438 0
-409 -442 0
-413 -434 0
-413 -438 0
-413 -442 0
-434 -438 0
-434 -442 0
-438 -442 0
-329 333 380 410 414 435 439 443 0
-333 329 0
-380 329 0
-410 329 0
-414 329 0
-435 329 0
-439 329 0
-443 329 0
-333 -380 0
-333 -410 0
-333 -414 0
-333 -435 0
-333 -439 0
-333 -443 0
-380 -410 0
-380 -414 0
-380 -435 0
-380 -439 0
-380 -443 0
-410 -414 0
-410 -435 0
-410 -439 0
-410 -443 0
-414 -435 0
-414 -439 0
-414 -443 0
-435 -439 0
-435 -443 0
-439 -443 0
-339 334 381 411 415 436 440 444 0
-334 339 0
-381 339 0
-411 339 0
-415 339 0
-436 339 0
-440 339 0
-444 339 0
-334 -381 0
-334 -411 0
-334 -415 0
-334 -436 0
-334 -440 0
-334 -444 0
-381 -411 0
-381 -415 0
-381 -436 0
-381 -440 0
-381 -444 0
-411 -415 0
-411 -436 0
-411 -440 0
-411 -444 0
-415 -436 0
-415 -440 0
-415 -444 0
-436 -440 0
-436 -444 0
-440 -444 0
-335 338 382 412 416 437 441 445 0
-338 335 0
-382 335 0
-412 335 0
-416 335 0
-437 335 0
-441 335 0
-445 335 0
-338 -382 0
-338 -412 0
-338 -416 0
-338 -437 0
-338 -441 0
-338 -445 0
-382 -412 0
-382 -416 0
-382 -437 0
-382 -441 0
-382 -445 0
-412 -416 0
-412 -437 0
-412 -441 0
-412 -445 0
-416 -437 0
-416 -441 0
-416 -445 0
-437 -441 0
-437 -445 0
-441 -445 0
-336 340 383 413 417 438 442 446 0
-340 336 0
-383 336 0
-413 336 0
-417 336 0
-438 336 0
-442 336 0
-446 336 0
-340 -383 0
-340 -413 0
-340 -417 0
-340 -438 0
-340 -442 0
-340 -446 0
-383 -413 0
-383 -417 0
-383 -438 0
-383 -442 0
-383 -446 0
-413 -417 0
-413 -438 0
-413 -442 0
-413 -446 0
-417 -438 0
-417 -442 0
-417 -446 0
-438 -442 0
-438 -446 0
-442 -446 0
-337 341 384 414 418 439 443 447 0
-341 337 0
-384 337 0
-414 337 0
-418 337 0
-439 337 0
-443 337 0
-447 337 0
-341 -384 0
-341 -414 0
-341 -418 0
-341 -439 0
-341 -443 0
-341 -447 0
-384 -414 0
-384 -418 0
-384 -439 0
-384 -443 0
-384 -447 0
-414 -418 0
-414 -439 0
-414 -443 0
-414 -447 0
-418 -439 0
-418 -443 0
-418 -447 0
-439 -443 0
-439 -447 0
-443 -447 0
-347 342 385 415 419 440 444 0
-342 347 0
-385 347 0
-415 347 0
-419 347 0
-440 347 0
-444 347 0
-342 -385 0
-342 -415 0
-342 -419 0
-342 -440 0
-342 -444 0
-385 -415 0
-385 -419 0
-385 -440 0
-385 -444 0
-415 -419 0
-415 -440 0
-415 -444 0
-419 -440 0
-419 -444 0
-440 -444 0
-343 346 386 416 420 441 445 0
-346 343 0
-386 343 0
-416 343 0
-420 343 0
-441 343 0
-445 343 0
-346 -386 0
-346 -416 0
-346 -420 0
-346 -441 0
-346 -445 0
-386 -416 0
-386 -420 0
-386 -441 0
-386 -445 0
-416 -420 0
-416 -441 0
-416 -445 0
-420 -441 0
-420 -445 0
-441 -445 0
-344 348 387 417 421 442 446 0
-348 344 0
-387 344 0
-417 344 0
-421 344 0
-442 344 0
-446 344 0
-348 -387 0
-348 -417 0
-348 -421 0
-348 -442 0
-348 -446 0
-387 -417 0
-387 -421 0
-387 -442 0
-387 -446 0
-417 -421 0
-417 -442 0
-417 -446 0
-421 -442 0
-421 -446 0
-442 -446 0
-345 349 388 418 422 443 447 0
-349 345 0
-388 345 0
-418 345 0
-422 345 0
-443 345 0
-447 345 0
-349 -388 0
-349 -418 0
-349 -422 0
-349 -443 0
-349 -447 0
-388 -418 0
-388 -422 0
-388 -443 0
-388 -447 0
-418 -422 0
-418 -443 0
-418 -447 0
-422 -443 0
-422 -447 0
-443 -447 0
-355 350 389 419 444 0
-350 355 0
-389 355 0
-419 355 0
-444 355 0
-350 -389 0
-350 -419 0
-350 -444 0
-389 -419 0
-389 -444 0
-419 -444 0
-351 354 390 420 445 0
-354 351 0
-390 351 0
-420 351 0
-445 351 0
-354 -390 0
-354 -420 0
-354 -445 0
-390 -420 0
-390 -445 0
-420 -445 0
-352 356 391 421 446 0
-356 352 0
-391 352 0
-421 352 0
-446 352 0
-356 -391 0
-356 -421 0
-356 -446 0
-391 -421 0
-391 -446 0
-421 -446 0
-353 357 392 422 447 0
-357 353 0
-392 353 0
-422 353 0
-447 353 0
-357 -392 0
-357 -422 0
-357 -447 0
-392 -422 0
-392 -447 0
-422 -447 0
448 449 450 451 452 453 0
-448 -449 0
-448 -450 0
-448 -451 0
-448 -452 0
-448 -453 0
-449 -450 0
-449 -451 0
-449 -452 0
-449 -453 0
-450 -451 0
-450 -452 0
-450 -453 0
-451 -452 0
-451 -453 0
-452 -453 0
454 455 456 457 0
-454 -455 0
-454 -456 0
-454 -457 0
-455 -456 0
-455 -457 0
-456 -457 0
-458 448 0
-458 454 0
-448 -454 458 0
-458 462 459 460 461 0
-458 -462 -459 0
-458 -462 -460 0
-458 -462 -461 0
-463 448 0
-463 455 0
-448 -455 463 0
-463 464 0
-463 462 460 461 0
-463 -462 -460 0
-463 -462 -461 0
-465 448 0
-465 456 0
-448 -456 465 0
-465 459 0
-465 462 461 0
-465 -462 -461 0
-466 448 0
-466 457 0
-448 -457 466 0
-466 460 0
-466 462 0
-467 449 0
-467 454 0
-449 -454 467 0
-467 462 468 469 470 0
-467 -462 -468 0
-467 -462 -469 0
-467 -462 -470 0
-471 449 0
-471 455 0
-449 -455 471 0
-471 472 0
-471 462 469 470 0
-471 -462 -469 0
-471 -462 -470 0
-473 449 0
-473 456 0
-449 -456 473 0
-473 468 0
-473 462 470 0
-473 -462 -470 0
-474 449 0
-474 457 0
-449 -457 474 0
-474 469 0
-474 462 0
-475 450 0
-475 454 0
-450 -454 475 0
-475 462 476 477 478 0
-475 -462 -476 0
-475 -462 -477 0
-475 -462 -478 0
-479 450 0
-479 455 0
-450 -455 479 0
-479 480 0
-479 462 477 478 0
-479 -462 -477 0
-479 -462 -478 0
-481 450 0
-481 456 0
-450 -456 481 0
-481 476 0
-481 462 478 0
-481 -462 -478 0
-482 450 0
-482 457 0
-450 -457 482 0
-482 477 0
-482 462 0
-483 451 0
-483 454 0
-451 -454 483 0
-483 462 484 485 486 0
-483 -462 -484 0
-483 -462 -485 0
-483 -462 -486 0
-487 451 0
-487 455 0
-451 -455 487 0
-487 488 0
-487 462 485 486 0
-487 -462 -485 0
-487 -462 -486 0
-489 451 0
-489 456 0
-451 -456 489 0
-489 484 0
-489 462 486 0
-489 -462 -486 0
-490 451 0
-490 457 0
-451 -457 490 0
-490 485 0
-490 462 0
-491 452 0
-491 454 0
-452 -454 491 0
-491 462 492 493 494 0
-491 -462 -492 0
-491 -462 -493 0
-491 -462 -494 0
-495 452 0
-495 455 0
-452 -455 495 0
-495 496 0
-495 462 493 494 0
-495 -462 -493 0
-495 -462 -494 0
-497 452 0
-497 456 0
-452 -456 497 0
-497 492 0
-497 462 494 0
-497 -462 -494 0
-498 452 0
-498 457 0
-452 -457 498 0
-498 493 0
-498 462 0
-499 453 0
-499 454 0
-453 -454 499 0
-499 462 500 501 502 0
-499 -462 -500 0
-499 -462 -501 0
-499 -462 -502 0
-503 453 0
-503 455 0
-453 -455 503 0
-503 504 0
-503 462 501 502 0
-503 -462 -501 0
-503 -462 -502 0
-505 453 0
-505 456 0
-453 -456 505 0
-505 500 0
-505 462 502 0
-505 -462 -502 0
-506 453 0
-506 457 0
-453 -457 506 0
-506 501 0
-506 462 0
507 508 509 510 511 512 0
-507 -508 0
-507 -509 0
-507 -510 0
-507 -511 0
-507 -512 0
-508 -509 0
-508 -510 0
-508 -511 0
-508 -512 0
-509 -510 0
-509 -511 0
-509 -512 0
-510 -511 0
-510 -512 0
-511 -512 0
513 514 515 516 0
-513 -514 0
-513 -515 0
-513 -516 0
-514 -515 0
-514 -516 0
-515 -516 0
-517 507 0
-517 513 0
-507 -513 517 0
-517 518 459 460 461 0
-517 -518 -459 0
-517 -518 -460 0
-517 -518 -461 0
-519 507 0
-519 514 0
-507 -514 519 0
-519 464 0
-519 518 460 461 0
-519 -518 -460 0
-519 -518 -461 0
-520 507 0
-520 515 0
-507 -515 520 0
-520 459 0
-520 518 461 0
-520 -518 -461 0
-521 507 0
-521 516 0
-507 -516 521 0
-521 460 0
-521 518 0
-522 508 0
-522 513 0
-508 -513 522 0
-522 518 468 469 470 0
-522 -518 -468 0
-522 -518 -469 0
-522 -518 -470 0
-523 508 0
-523 514 0
-508 -514 523 0
-523 472 0
-523 518 469 470 0
-523 -518 -469 0
-523 -518 -470 0
-524 508 0
-524 515 0
-508 -515 524 0
-524 468 0
-524 518 470 0
-524 -518 -470 0
-525 508 0
-525 516 0
-508 -516 525 0
-525 469 0
-525 518 0
-526 509 0
-526 513 0
-509 -513 526 0
-526 518 476 477 478 0
-526 -518 -476 0
-526 -518 -477 0
-526 -518 -478 0
-527 509 0
-527 514 0
-509 -514 527 0
-527 480 0
-527 518 477 478 0
-527 -518 -477 0
-527 -518 -478 0
-528 509 0
-528 515 0
-509 -515 528 0
-528 476 0
-528 518 478 0
-528 -518 -478 0
-529 509 0
-529 516 0
-509 -516 529 0
-529 477 0
-529 518 0
-530 510 0
-530 513 0
-510 -513 530 0
-530 518 484 485 486 0
-530 -518 -484 0
-530 -518 -485 0
-530 -518 -486 0
-531 510 0
-531 514 0
-510 -514 531 0
-531 488 0
-531 518 485 486 0
-531 -518 -485 0
-531 -518 -486 0
-532 510 0
-532 515 0
-510 -515 532 0
-532 484 0
-532 518 486 0
-532 -518 -486 0
-533 510 0
-533 516 0
-510 -516 533 0
-533 485 0
-533 518 0
-534 511 0
-534 513 0
-511 -513 534 0
-534 518 492 493 494 0
-534 -518 -492 0
-534 -518 -493 0
-534 -518 -494 0
-535 511 0
-535 514 0
-511 -514 535 0
-535 496 0
-535 518 493 494 0
-535 -518 -493 0
-535 -518 -494 0
-536 511 0
-536 515 0
-511 -515 536 0
-536 492 0
-536 518 494 0
-536 -518 -494 0
-537 511 0
-537 516 0
-511 -516 537 0
-537 493 0
-537 518 0
-538 512 0
-538 513 0
-512 -513 538 0
-538 518 500 501 502 0
-538 -518 -500 0
-538 -518 -501 0
-538 -518 -502 0
-539 512 0
-539 514 0
-512 -514 539 0
-539 504 0
-539 518 501 502 0
-539 -518 -501 0
-539 -518 -502 0
-540 512 0
-540 515 0
-512 -515 540 0
-540 500 0
-540 518 502 0
-540 -518 -502 0
-541 512 0
-541 516 0
-512 -516 541 0
-541 501 0
-541 518 0
542 543 544 545 546 0
-542 -543 0
-542 -544 0
-542 -545 0
-542 -546 0
-543 -544 0
-543 -545 0
-543 -546 0
-544 -545 0
-544 -546 0
-545 -546 0
547 548 549 550 0
-547 -548 0
-547 -549 0
-547 -550 0
-548 -549 0
-548 -550 0
-549 -550 0
-551 542 0
-551 547 0
-542 -547 551 0
-551 552 459 460 461 468 469 470 0
-551 -552 -459 0
-551 -552 -460 0
-551 -552 -461 0
-551 -552 -468 0
-551 -552 -469 0
-551 -552 -470 0
-553 542 0
-553 548 0
-542 -548 553 0
-553 464 472 0
-553 552 460 461 469 470 0
-553 -552 -460 0
-553 -552 -461 0
-553 -552 -469 0
-553 -552 -470 0
-554 542 0
-554 549 0
-542 -549 554 0
-554 459 468 0
-554 552 461 470 0
-554 -552 -461 0
-554 -552 -470 0
-555 542 0
-555 550 0
-542 -550 555 0
-555 460 469 0
-555 552 0
-556 543 0
-556 547 0
-543 -547 556 0
-556 552 468 469 470 476 477 478 0
-556 -552 -468 0
-556 -552 -469 0
-556 -552 -470 0
-556 -552 -476 0
-556 -552 -477 0
-556 -552 -478 0
-557 543 0
-557 548 0
-543 -548 557 0
-557 472 480 0
-557 552 469 470 477 478 0
-557 -552 -469 0
-557 -552 -470 0
-557 -552 -477 0
-557 -552 -478 0
-558 543 0
-558 549 0
-543 -549 558 0
-558 468 476 0
-558 552 470 478 0
-558 -552 -470 0
-558 -552 -478 0
-559 543 0
-559 550 0
-543 -550 559 0
-559 469 477 0
-559 552 0
-560 544 0
-560 547 0
-544 -547 560 0
-560 552 476 477 478 484 485 486 0
-560 -552 -476 0
-560 -552 -477 0
-560 -552 -478 0
-560 -552 -484 0
-560 -552 -485 0
-560 -552 -486 0
-561 544 0
-561 548 0
-544 -548 561 0
-561 480 488 0
-561 552 477 478 485 486 0
-561 -552 -477 0
-561 -552 -478 0
-561 -552 -485 0
-561 -552 -486 0
-562 544 0
-562 549 0
-544 -549 562 0
-562 476 484 0
-562 552 478 486 0
-562 -552 -478 0
-562 -552 -486 0
-563 544 0
-563 550 0
-544 -550 563 0
-563 477 485 0
-563 552 0
-564 545 0
-564 547 0
-545 -547 564 0
-564 552 484 485 486 492 493 494 0
-564 -552 -484 0
-564 -552 -485 0
-564 -552 -486 0
-564 -552 -492 0
-564 -552 -493 0
-564 -552 -494 0
-565 545 0
-565 548 0
-545 -548 565 0
-565 488 496 0
-565 552 485 486 493 494 0
-565 -552 -485 0
-565 -552 -486 0
-565 -552 -493 0
-565 -552 -494 0
-566 545 0
-566 549 0
-545 -549 566 0
-566 484 492 0
-566 552 486 494 0
-566 -552 -486 0
-566 -552 -494 0
-567 545 0
-567 550 0
-545 -550 567 0
-567 485 493 0
-567 552 0
-568 546 0
-568 547 0
-546 -547 568 0
-568 552 492 493 494 500 501 502 0
-568 -552 -492 0
-568 -552 -493 0
-568 -552 -494 0
-568 -552 -500 0
-568 -552 -501 0
-568 -552 -502 0
-569 546 0
-569 548 0
-546 -548 569 0
-569 496 504 0
-569 552 493 494 501 502 0
-569 -552 -493 0
-569 -552 -494 0
-569 -552 -501 0
-569 -552 -502 0
-570 546 0
-570 549 0
-546 -549 570 0
-570 492 500 0
-570 552 494 502 0
-570 -552 -494 0
-570 -552 -502 0
-571 546 0
-571 550 0
-546 -550 571 0
-571 493 501 0
-571 552 0
572 573 574 575 0
-572 -573 0
-572 -574 0
-572 -575 0
-573 -574 0
-573 -575 0
-574 -575 0
576 577 578 579 0
-576 -577 0
-576 -578 0
-576 -579 0
-577 -578 0
-577 -579 0
-578 -579 0
-580 572 0
-580 576 0
-572 -576 580 0
-580 581 459 460 461 468 469 470 476 477 478 0
-580 -581 -459 0
-580 -581 -460 0
-580 -581 -461 0
-580 -581 -468 0
-580 -581 -469 0
-580 -581 -470 0
-580 -581 -476 0
-580 -581 -477 0
-580 -581 -478 0
-582 572 0
-582 577 0
-572 -577 582 0
-582 464 472 0
-582 464 480 0
-582 472 480 0
-582 581 460 461 469 470 477 478 0
-582 -581 -460 0
-582 -581 -461 0
-582 -581 -469 0
-582 -581 -470 0
-582 -581 -477 0
-582 -581 -478 0
-583 572 0
-583 578 0
-572 -578 583 0
-583 459 468 0
-583 459 476 0
-583 468 476 0
-583 581 461 470 478 0
-583 -581 -461 0
-583 -581 -470 0
-583 -581 -478 0
-584 572 0
-584 579 0
-572 -579 584 0
-584 460 469 0
-584 460 477 0
-584 469 477 0
-584 581 0
-585 573 0
-585 576 0
-573 -576 585 0
-585 581 468 469 470 476 477 478 484 485 486 0
-585 -581 -468 0
-585 -581 -469 0
-585 -581 -470 0
-585 -581 -476 0
-585 -581 -477 0
-585 -581 -478 0
-585 -581 -484 0
-585 -581 -485 0
-585 -581 -486 0
-586 573 0
-586 577 0
-573 -577 586 0
-586 472 480 0
-586 472 488 0
-586 480 488 0
-586 581 469 470 477 478 485 486 0
-586 -581 -469 0
-586 -581 -470 0
-586 -581 -477 0
-586 -581 -478 0
-586 -581 -485 0
-586 -581 -486 0
-587 573 0
-587 578 0
-573 -578 587 0
-587 468 476 0
-587 468 484 0
-587 476 484 0
-587 581 470 478 486 0
-587 -581 -470 0
-587 -581 -478 0
-587 -581 -486 0
-588 573 0
-588 579 0
-573 -579 588 0
-588 469 477 0
-588 469 485 0
-588 477 485 0
-588 581 0
-589 574 0
-589 576 0
-574 -576 589 0
-589 581 476 477 478 484 485 486 492 493 494 0
-589 -581 -476 0
-589 -581 -477 0
-589 -581 -478 0
-589 -581 -484 0
-589 -581 -485 0
-589 -581 -486 0
-589 -581 -492 0
-589 -581 -493 0
-589 -581 -494 0
-590 574 0
-590 577 0
-574 -577 590 0
-590 480 488 0
-590 480 496 0
-590 488 496 0
-590 581 477 478 485 486 493 494 0
-590 -581 -477 0
-590 -581 -478 0
-590 -581 -485 0
-590 -581 -486 0
-590 -581 -493 0
-590 -581 -494 0
-591 574 0
-591 578 0
-574 -578 591 0
-591 476 484 0
-591 476 492 0
-591 484 492 0
-591 581 478 486 494 0
-591 -581 -478 0
-591 -581 -486 0
-591 -581 -494 0
-592 574 0
-592 579 0
-574 -579 592 0
-592 477 485 0
-592 477 493 0
-592 485 493 0
-592 581 0
-593 575 0
-593 576 0
-575 -576 593 0
-593 581 484 485 486 492 493 494 500 501 502 0
-593 -581 -484 0
-593 -581 -485 0
-593 -581 -486 0
-593 -581 -492 0
-593 -581 -493 0
-593 -581 -494 0
-593 -581 -500 0
-593 -581 -501 0
-593 -581 -502 0
-594 575 0
-594 577 0
-575 -577 594 0
-594 488 496 0
-594 488 504 0
-594 496 504 0
-594 581 485 486 493 494 501 502 0
-594 -581 -485 0
-594 -581 -486 0
-594 -581 -493 0
-594 -581 -494 0
-594 -581 -501 0
-594 -581 -502 0
-595 575 0
-595 578 0
-575 -578 595 0
-595 484 492 0
-595 484 500 0
-595 492 500 0
-595 581 486 494 502 0
-595 -581 -486 0
-595 -581 -494 0
-595 -581 -502 0
-596 575 0
-596 579 0
-575 -579 596 0
-596 485 493 0
-596 485 501 0
-596 493 501 0
-596 581 0
-464 458 517 551 580 0
-458 464 0
-517 464 0
-551 464 0
-580 464 0
-458 -517 0
-458 -551 0
-458 -580 0
-517 -551 0
-517 -580 0
-551 -580 0
-459 463 519 553 582 0
-463 459 0
-519 459 0
-553 459 0
-582 459 0
-463 -519 0
-463 -553 0
-463 -582 0
-519 -553 0
-519 -582 0
-553 -582 0
-460 465 520 554 583 0
-465 460 0
-520 460 0
-554 460 0
-583 460 0
-465 -520 0
-465 -554 0
-465 -583 0
-520 -554 0
-520 -583 0
-554 -583 0
-461 466 521 555 584 0
-466 461 0
-521 461 0
-555 461 0
-584 461 0
-466 -521 0
-466 -555 0
-466 -584 0
-521 -555 0
-521 -584 0
-555 -584 0
-472 467 522 551 556 580 585 0
-467 472 0
-522 472 0
-551 472 0
-556 472 0
-580 472 0
-585 472 0
-467 -522 0
-467 -551 0
-467 -556 0
-467 -580 0
-467 -585 0
-522 -551 0
-522 -556 0
-522 -580 0
-522 -585 0
-551 -556 0
-551 -580 0
-551 -585 0
-556 -580 0
-556 -585 0
-580 -585 0
-468 471 523 553 557 582 586 0
-471 468 0
-523 468 0
-553 468 0
-557 468 0
-582 468 0
-586 468 0
-471 -523 0
-471 -553 0
-471 -557 0
-471 -582 0
-471 -586 0
-523 -553 0
-523 -557 0
-523 -582 0
-523 -586 0
-553 -557 0
-553 -582 0
-553 -586 0
-557 -582 0
-557 -586 0
-582 -586 0
-469 473 524 554 558 583 587 0
-473 469 0
-524 469 0
-554 469 0
-558 469 0
-583 469 0
-587 469 0
-473 -524 0
-473 -554 0
-473 -558 0
-473 -583 0
-473 -587 0
-524 -554 0
-524 -558 0
-524 -583 0
-524 -587 0
-554 -558 0
-554 -583 0
-554 -587 0
-558 -583 0
-558 -587 0
-583 -587 0
-470 474 525 555 559 584 588 0
-474 470 0
-525 470 0
-555 470 0
-559 470 0
-584 470 0
-588 470 0
-474 -525 0
-474 -555 0
-474 -559 0
-474 -584 0
-474 -588 0
-525 -555 0
-525 -559 0
-525 -584 0
-525 -588 0
-555 -559 0
-555 -584 0
-555 -588 0
-559 -584 0
-559 -588 0
-584 -588 0
-480 475 526 556 560 580 585 589 0
-475 480 0
-526 480 0
-556 480 0
-560 480 0
-580 480 0
-585 480 0
-589 480 0
-475 -526 0
-475 -556 0
-475 -560 0
-475 -580 0
-475 -585 0
-475 -589 0
-526 -556 0
-526 -560 0
-526 -580 0
-526 -585 0
-526 -589 0
-556 -560 0
-556 -580 0
-556 -585 0
-556 -589 0
-560 -580 0
-560 -585 0
-560 -589 0
-580 -585 0
-580 -589 0
-585 -589 0
-476 479 527 557 561 582 586 590 0
-479 476 0
-527 476 0
-557 476 0
-561 476 0
-582 476 0
-586 476 0
-590 476 0
-479 -527 0
-479 -557 0
-479 -561 0
-479 -582 0
-479 -586 0
-479 -590 0
-527 -557 0
-527 -561 0
-527 -582 0
-527 -586 0
-527 -590 0
-557 -561 0
-557 -582 0
-557 -586 0
-557 -590 0
-561 -582 0
-561 -586 0
-561 -590 0
-582 -586 0
-582 -590 0
-586 -590 0
-477 481 528 558 562 583 587 591 0
-481 477 0
-528 477 0
-558 477 0
-562 477 0
-583 477 0
-587 477 0
-591 477 0
-481 -528 0
-481 -558 0
-481 -562 0
-481 -583 0
-481 -587 0
-481 -591 0
-528 -558 0
-528 -562 0
-528 -583 0
-528 -587 0
-528 -591 0
-558 -562 0
-558 -583 0
-558 -587 0
-558 -591 0
-562 -583 0
-562 -587 0
-562 -591 0
-583 -587 0
-583 -591 0
-587 -591 0
-478 482 529 559 563 584 588 592 0
-482 478 0
-529 478 0
-559 478 0
-563 478 0
-584 478 0
-588 478 0
-592 478 0
-482 -529 0
-482 -559 0
-482 -563 0
-482 -584 0
-482 -588 0
-482 -592 0
-529 -559 0
-529 -563 0
-529 -584 0
-529 -588 0
-529 -592 0
-559 -563 0
-559 -584 0
-559 -588 0
-559 -592 0
-563 -584 0
-563 -588 0
-563 -592 0
-584 -588 0
-584 -592 0
-588 -592 0
-488 483 530 560 564 585 589 593 0
-483 488 0
-530 488 0
-560 488 0
-564 488 0
-585 488 0
-589 488 0
-593 488 0
-483 -530 0
-483 -560 0
-483 -564 0
-483 -585 0
-483 -589 0
-483 -593 0
-530 -560 0
-530 -564 0
-530 -585 0
-530 -589 0
-530 -593 0
-560 -564 0
-560 -585 0
-560 -589 0
-560 -593 0
-564 -585 0
-564 -589 0
-564 -593 0
-585 -589 0
-585 -593 0
-589 -593 0
-484 487 531 561 565 586 590 594 0
-487 484 0
-531 484 0
-561 484 0
-565 484 0
-586 484 0
-590 484 0
-594 484 0
-487 -531 0
-487 -561 0
-487 -565 0
-487 -586 0
-487 -590 0
-487 -594 0
-531 -561 0
-531 -565 0
-531 -586 0
-531 -590 0
-531 -594 0
-561 -565 0
-561 -586 0
-561 -590 0
-561 -594 0
-565 -586 0
-565 -590 0
-565 -594 0
-586 -590 0
-586 -594 0
-590 -594 0
-485 489 532 562 566 587 591 595 0
-489 485 0
-532 485 0
-562 485 0
-566 485 0
-587 485 0
-591 485 0
-595 485 0
-489 -532 0
-489 -562 0
-489 -566 0
-489 -587 0
-489 -591 0
-489 -595 0
-532 -562 0
-532 -566 0
-532 -587 0
-532 -591 0
-532 -595 0
-562 -566 0
-562 -587 0
-562 -591 0
-562 -595 0
-566 -587 0
-566 -591 0
-566 -595 0
-587 -591 0
-587 -595 0
-591 -595 0
-486 490 533 563 567 588 592 596 0
-490 486 0
-533 486 0
-563 486 0
-567 486 0
-588 486 0
-592 486 0
-596 486 0
-490 -533 0
-490 -563 0
-490 -567 0
-490 -588 0
-490 -592 0
-490 -596 0
-533 -563 0
-533 -567 0
-533 -588 0
-533 -592 0
-533 -596 0
-563 -567 0
-563 -588 0
-563 -592 0
-563 -596 0
-567 -588 0
-567 -592 0
-567 -596 0
-588 -592 0
-588 -596 0
-592 -596 0
-496 491 534 564 568 589 593 0
-491 496 0
-534 496 0
-564 496 0
-568 496 0
-589 496 0
-593 496 0
-491 -534 0
-491 -564 0
-491 -568 0
-491 -589 0
-491 -593 0
-534 -564 0
-534 -568 0
-534 -589 0
-534 -593 0
-564 -568 0
-564 -589 0
-564 -593 0
-568 -589 0
-568 -593 0
-589 -593 0
-492 495 535 565 569 590 594 0
-495 492 0
-535 492 0
-565 492 0
-569 492 0
-590 492 0
-594 492 0
-495 -535 0
-495 -565 0
-495 -569 0
-495 -590 0
-495 -594 0
-535 -565 0
-535 -569 0
-535 -590 0
-535 -594 0
-565 -569 0
-565 -590 0
-565 -594 0
-569 -590 0
-569 -594 0
-590 -594 0
-493 497 536 566 570 591 595 0
-497 493 0
-536 493 0
-566 493 0
-570 493 0
-591 493 0
-595 493 0
-497 -536 0
-497 -566 0
-497 -570 0
-497 -591 0
-497 -595 0
-536 -566 0
-536 -570 0
-536 -591 0
-536 -595 0
-566 -570 0
-566 -591 0
-566 -595 0
-570 -591 0
-570 -595 0
-591 -595 0
-494 498 537 567 571 592 596 0
-498 494 0
-537 494 0
-567 494 0
-571 494 0
-592 494 0
-596 494 0
-498 -537 0
-498 -567 0
-498 -571 0
-498 -592 0
-498 -596 0
-537 -567 0
-537 -571 0
-537 -592 0
-537 -596 0
-567 -571 0
-567 -592 0
-567 -596 0
-571 -592 0
-571 -596 0
-592 -596 0
-504 499 538 568 593 0
-499 504 0
-538 504 0
-568 504 0
-593 504 0
-499 -538 0
-499 -568 0
-499 -593 0
-538 -568 0
-538 -593 0
-568 -593 0
-500 503 539 569 594 0
-503 500 0
-539 500 0
-569 500 0
-594 500 0
-503 -539 0
-503 -569 0
-503 -594 0
-539 -569 0
-539 -594 0
-569 -594 0
-501 505 540 570 595 0
-505 501 0
-540 501 0
-570 501 0
-595 501 0
-505 -540 0
-505 -570 0
-505 -595 0
-540 -570 0
-540 -595 0
-570 -595 0
-502 506 541 571 596 0
-506 502 0
-541 502 0
-571 502 0
-596 502 0
-506 -541 0
-506 -571 0
-506 -596 0
-541 -571 0
-541 -596 0
-571 -596 0
597 598 599 600 601 602 0
-597 -598 0
-597 -599 0
-597 -600 0
-597 -601 0
-597 -602 0
-598 -599 0
-598 -600 0
-598 -601 0
-598 -602 0
-599 -600 0
-599 -601 0
-599 -602 0
-600 -601 0
-600 -602 0
-601 -602 0
603 604 605 606 0
-603 -604 0
-603 -605 0
-603 -606 0
-604 -605 0
-604 -606 0
-605 -606 0
-607 597 0
-607 603 0
-597 -603 607 0
-607 611 608 609 610 0
-607 -611 -608 0
-607 -611 -609 0
-607 -611 -610 0
-612 597 0
-612 604 0
-597 -604 612 0
-612 613 0
-612 611 609 610 0
-612 -611 -609 0
-612 -611 -610 0
-614 597 0
-614 605 0
-597 -605 614 0
-614 608 0
-614 611 610 0
-614 -611 -610 0
-615 597 0
-615 606 0
-597 -606 615 0
-615 609 0
-615 611 0
-616 598 0
-616 603 0
-598 -603 616 0
-616 611 617 618 619 0
-616 -611 -617 0
-616 -611 -618 0
-616 -611 -619 0
-620 598 0
-620 604 0
-598 -604 620 0
-620 621 0
-620 611 618 619 0
-620 -611 -618 0
-620 -611 -619 0
-622 598 0
-622 605 0
-598 -605 622 0
-622 617 0
-622 611 619 0
-622 -611 -619 0
-623 598 0
-623 606 0
-598 -606 623 0
-623 618 0
-623 611 0
-624 599 0
-624 603 0
-599 -603 624 0
-624 611 625 626 627 0
-624 -611 -625 0
-624 -611 -626 0
-624 -611 -627 0
-628 599 0
-628 604 0
-599 -604 628 0
-628 629 0
-628 611 626 627 0
-628 -611 -626 0
-628 -611 -627 0
-630 599 0
-630 605 0
-599 -605 630 0
-630 625 0
-630 611 627 0
-630 -611 -627 0
-631 599 0
-631 606 0
-599 -606 631 0
-631 626 0
-631 611 0
-632 600 0
-632 603 0
-600 -603 632 0
-632 611 633 634 635 0
-632 -611 -633 0
-632 -611 -634 0
-632 -611 -635 0
-636 600 0
-636 604 0
-600 -604 636 0
-636 637 0
-636 611 634 635 0
-636 -611 -634 0
-636 -611 -635 0
-638 600 0
-638 605 0
-600 -605 638 0
-638 633 0
-638 611 635 0
-638 -611 -635 0
-639 600 0
-639 606 0
-600 -606 639 0
-639 634 0
-639 611 0
-640 601 0
-640 603 0
-601 -603 640 0
-640 611 641 642 643 0
-640 -611 -641 0
-640 -611 -642 0
-640 -611 -643 0
-644 601 0
-644 604 0
-601 -604 644 0
-644 645 0
-644 611 642 643 0
-644 -611 -642 0
-644 -611 -643 0
-646 601 0
-646 605 0
-601 -605 646 0
-646 641 0
-646 611 643 0
-646 -611 -643 0
-647 601 0
-647 606 0
-601 -606 647 0
-647 642 0
-647 611 0
-648 602 0
-648 603 0
-602 -603 648 0
-648 611 649 650 651 0
-648 -611 -649 0
-648 -611 -650 0
-648 -611 -651 0
-652 602 0
-652 604 0
-602 -604 652 0
-652 653 0
-652 611 650 651 0
-652 -611 -650 0
-652 -611 -651 0
-654 602 0
-654 605 0
-602 -605 654 0
-654 649 0
-654 611 651 0
-654 -611 -651 0
-655 602 0
-655 606 0
-602 -606 655 0
-655 650 0
-655 611 0
656 657 658 659 660 661 0
-656 -657 0
-656 -658 0
-656 -659 0
-656 -660 0
-656 -661 0
-657 -658 0
-657 -659 0
-657 -660 0
-657 -661 0
-658 -659 0
-658 -660 0
-658 -661 0
-659 -660 0
-659 -661 0
-660 -661 0
662 663 664 665 0
-662 -663 0
-662 -664 0
-662 -665 0
-663 -664 0
-663 -665 0
-664 -665 0
-666 656 0
-666 662 0
-656 -662 666 0
-666 667 608 609 610 0
-666 -667 -608 0
-666 -667 -609 0
-666 -667 -610 0
-668 656 0
-668 663 0
-656 -663 668 0
-668 613 0
-668 667 609 610 0
-668 -667 -609 0
-668 -667 -610 0
-669 656 0
-669 664 0
-656 -664 669 0
-669 608 0
-669 667 610 0
-669 -667 -610 0
-670 656 0
-670 665 0
-656 -665 670 0
-670 609 0
-670 667 0
-671 657 0
-671 662 0
-657 -662 671 0
-671 667 617 618 619 0
-671 -667 -617 0
-671 -667 -618 0
-671 -667 -619 0
-672 657 0
-672 663 0
-657 -663 672 0
-672 621 0
-672 667 618 619 0
-672 -667 -618 0
-672 -667 -619 0
-673 657 0
-673 664 0
-657 -664 673 0
-673 617 0
-673 667 619 0
-673 -667 -619 0
-674 657 0
-674 665 0
-657 -665 674 0
-674 618 0
-674 667 0
-675 658 0
-675 662 0
-658 -662 675 0
-675 667 625 626 627 0
-675 -667 -625 0
-675 -667 -626 0
-675 -667 -627 0
-676 658 0
-676 663 0
-658 -663 676 0
-676 629 0
-676 667 626 627 0
-676 -667 -626 0
-676 -667 -627 0
-677 658 0
-677 664 0
-658 -664 677 0
-677 625 0
-677 667 627 0
-677 -667 -627 0
-678 658 0
-678 665 0
-658 -665 678 0
-678 626 0
-678 667 0
-679 659 0
-679 662 0
-659 -662 679 0
-679 667 633 634 635 0
-679 -667 -633 0
-679 -667 -634 0
-679 -667 -635 0
-680 659 0
-680 663 0
-659 -663 680 0
-680 637 0
-680 667 634 635 0
-680 -667 -634 0
-680 -667 -635 0
-681 659 0
-681 664 0
-659 -664 681 0
-681 633 0
-681 667 635 0
-681 -667 -635 0
-682 659 0
-682 665 0
-659 -665 682 0
-682 634 0
-682 667 0
-683 660 0
-683 662 0
-660 -662 683 0
-683 667 641 642 643 0
-683 -667 -641 0
-683 -667 -642 0
-683 -667 -643 0
-684 660 0
-684 663 0
-660 -663 684 0
-684 645 0
-684 667 642 643 0
-684 -667 -642 0
-684 -667 -643 0
-685 660 0
-685 664 0
-660 -664 685 0
-685 641 0
-685 667 643 0
-685 -667 -643 0
-686 660 0
-686 665 0
-660 -665 686 0
-686 642 0
-686 667 0
-687 661 0
-687 662 0
-661 -662 687 0
-687 667 649 650 651 0
-687 -667 -649 0
-687 -667 -650 0
-687 -667 -651 0
-688 661 0
-688 663 0
-661 -663 688 0
-688 653 0
-688 667 650 651 0
-688 -667 -650 0
-688 -667 -651 0
-689 661 0
-689 664 0
-661 -664 689 0
-689 649 0
-689 667 651 0
-689 -667 -651 0
-690 661 0
-690 665 0
-661 -665 690 0
-690 650 0
-690 667 0
691 692 693 694 695 0
-691 -692 0
-691 -693 0
-691 -694 0
-691 -695 0
-692 -693 0
-692 -694 0
-692 -695 0
-693 -694 0
-693 -695 0
-694 -695 0
696 697 698 699 0
-696 -697 0
-696 -698 0
-696 -699 0
-697 -698 0
-697 -699 0
-698 -699 0
-700 691 0
-700 696 0
-691 -696 700 0
-700 701 608 609 610 617 618 619 0
-700 -701 -608 0
-700 -701 -609 0
-700 -701 -610 0
-700 -701 -617 0
-700 -701 -618 0
-700 -701 -619 0
-702 691 0
-702 697 0
-691 -697 702 0
-702 613 621 0
-702 701 609 610 618 619 0
-702 -701 -609 0
-702 -701 -610 0
-702 -701 -618 0
-702 -701 -619 0
-703 691 0
-703 698 0
-691 -698 703 0
-703 608 617 0
-703 701 610 619 0
-703 -701 -610 0
-703 -701 -619 0
-704 691 0
-704 699 0
-691 -699 704 0
-704 609 618 0
-704 701 0
-705 692 0
-705 696 0
-692 -696 705 0
-705 701 617 618 619 625 626 627 0
-705 -701 -617 0
-705 -701 -618 0
-705 -701 -619 0
-705 -701 -625 0
-705 -701 -626 0
-705 -701 -627 0
-706 692 0
-706 697 0
-692 -697 706 0
-706 621 629 0
-706 701 618 619 626 627 0
-706 -701 -618 0
-706 -701 -619 0
-706 -701 -626 0
-706 -701 -627 0
-707 692 0
-707 698 0
-692 -698 707 0
-707 617 625 0
-707 701 619 627 0
-707 -701 -619 0
-707 -701 -627 0
-708 692 0
-708 699 0
-692 -699 708 0
-708 618 626 0
-708 701 0
-709 693 0
-709 696 0
-693 -696 709 0
-709 701 625 626 627 633 634 635 0
-709 -701 -625 0
-709 -701 -626 0
-709 -701 -627 0
-709 -701 -633 0
-709 -701 -634 0
-709 -701 -635 0
-710 693 0
-710 697 0
-693 -697 710 0
-710 629 637 0
-710 701 626 627 634 635 0
-710 -701 -626 0
-710 -701 -627 0
-710 -701 -634 0
-710 -701 -635 0
-711 693 0
-711 698 0
-693 -698 711 0
-711 625 633 0
-711 701 627 635 0
-711 -701 -627 0
-711 -701 -635 0
-712 693 0
-712 699 0
-693 -699 712 0
-712 626 634 0
-712 701 0
-713 694 0
-713 696 0
-694 -696 713 0
-713 701 633 634 635 641 642 643 0
-713 -701 -633 0
-713 -701 -634 0
-713 -701 -635 0
-713 -701 -641 0
-713 -701 -642 0
-713 -701 -643 0
-714 694 0
-714 697 0
-694 -697 714 0
-714 637 645 0
-714 701 634 635 642 643 0
-714 -701 -634 0
-714 -701 -635 0
-714 -701 -642 0
-714 -701 -643 0
-715 694 0
-715 698 0
-694 -698 715 0
-715 633 641 0
-715 701 635 643 0
-715 -701 -635 0
-715 -701 -643 0
-716 694 0
-716 699 0
-694 -699 716 0
-716 634 642 0
-716 701 0
-717 695 0
-717 696 0
-695 -696 717 0
-717 701 641 642 643 649 650 651 0
-717 -701 -641 0
-717 -701 -642 0
-717 -701 -643 0
-717 -701 -649 0
-717 -701 -650 0
-717 -701 -651 0
-718 695 0
-718 697 0
-695 -697 718 0
-718 645 653 0
-718 701 642 643 650 651 0
-718 -701 -642 0
-718 -701 -643 0
-718 -701 -650 0
-718 -701 -651 0
-719 695 0
-719 698 0
-695 -698 719 0
-719 641 649 0
-719 701 643 651 0
-719 -701 -643 0
-719 -701 -651 0
-720 695 0
-720 699 0
-695 -699 720 0
-720 642 650 0
-720 701 0
721 722 723 724 0
-721 -722 0
-721 -723 0
-721 -724 0
-722 -723 0
-722 -724 0
-723 -724 0
725 726 727 728 0
-725 -726 0
-725 -727 0
-725 -728 0
-726 -727 0
-726 -728 0
-727 -728 0
-729 721 0
-729 725 0
-721 -725 729 0
-729 730 608 609 610 617 618 619 625 626 627 0
-729 -730 -608 0
-729 -730 -609 0
-729 -730 -610 0
-729 -730 -617 0
-729 -730 -618 0
-729 -730 -619 0
-729 -730 -625 0
-729 -730 -626 0
-729 -730 -627 0
-731 721 0
-731 726 0
-721 -726 731 0
-731 613 621 0
-731 613 629 0
-731 621 629 0
-731 730 609 610 618 619 626 627 0
-731 -730 -609 0
-731 -730 -610 0
-731 -730 -618 0
-731 -730 -619 0
-731 -730 -626 0
-731 -730 -627 0
-732 721 0
-732 727 0
-721 -727 732 0
-732 608 617 0
-732 608 625 0
-732 617 625 0
-732 730 610 619 627 0
-732 -730 -610 0
-732 -730 -619 0
-732 -730 -627 0
-733 721 0
-733 728 0
-721 -728 733 0
-733 609 618 0
-733 609 626 0
-733 618 626 0
-733 730 0
-734 722 0
-734 725 0
-722 -725 734 0
-734 730 617 618 619 625 626 627 633 634 635 0
-734 -730 -617 0
-734 -730 -618 0
-734 -730 -619 0
-734 -730 -625 0
-734 -730 -626 0
-734 -730 -627 0
-734 -730 -633 0
-734 -730 -634 0
-734 -730 -635 0
-735 722 0
-735 726 0
-722 -726 735 0
-735 621 629 0
-735 621 637 0
-735 629 637 0
-735 730 618 619 626 627 634 635 0
-735 -730 -618 0
-735 -730 -619 0
-735 -730 -626 0
-735 -730 -627 0
-735 -730 -634 0
-735 -730 -635 0
-736 722 0
-736 727 0
-722 -727 736 0
-736 617 625 0
-736 617 633 0
-736 625 633 0
-736 730 619 627 635 0
-736 -730 -619 0
-736 -730 -627 0
-736 -730 -635 0
-737 722 0
-737 728 0
-722 -728 737 0
-737 618 626 0
-737 618 634 0
-737 626 634 0
-737 730 0
-738 723 0
-738 725 0
-723 -725 738 0
-738 730 625 626 627 633 634 635 641 642 643 0
-738 -730 -625 0
-738 -730 -626 0
-738 -730 -627 0
-738 -730 -633 0
-738 -730 -634 0
-738 -730 -635 0
-738 -730 -641 0
-738 -730 -642 0
-738 -730 -643 0
-739 723 0
-739 726 0
-723 -726 739 0
-739 629 637 0
-739 629 645 0
-739 637 645 0
-739 730 626 627 634 635 642 643 0
-739 -730 -626 0
-739 -730 -627 0
-739 -730 -634 0
-739 -730 -635 0
-739 -730 -642 0
-739 -730 -643 0
-740 723 0
-740 727 0
-723 -727 740 0
-740 625 633 0
-740 625 641 0
-740 633 641 0
-740 730 627 635 643 0
-740 -730 -627 0
-740 -730 -635 0
-740 -730 -643 0
-741 723 0
-741 728 0
-723 -728 741 0
-741 626 634 0
-741 626 642 0
-741 634 642 0
-741 730 0
-742 724 0
-742 725 0
-724 -725 742 0
-742 730 633 634 635 641 642 643 649 650 651 0
-742 -730 -633 0
-742 -730 -634 0
-742 -730 -635 0
-742 -730 -641 0
-742 -730 -642 0
-742 -730 -643 0
-742 -730 -649 0
-742 -730 -650 0
-742 -730 -651 0
-743 724 0
-743 726 0
-724 -726 743 0
-743 637 645 0
-743 637 653 0
-743 645 653 0
-743 730 634 635 642 643 650 651 0
-743 -730 -634 0
-743 -730 -635 0
-743 -730 -642 0
-743 -730 -643 0
-743 -730 -650 0
-743 -730 -651 0
-744 724 0
-744 727 0
-724 -727 744 0
-744 633 641 0
-744 633 649 0
-744 641 649 0
-744 730 635 643 651 0
-744 -730 -635 0
-744 -730 -643 0
-744 -730 -651 0
-745 724 0
-745 728 0
-724 -728 745 0
-745 634 642 0
-745 634 650 0
-745 642 650 0
-745 730 0
-613 607 666 700 729 0
-607 613 0
-666 613 0
-700 613 0
-729 613 0
-607 -666 0
-607 -700 0
-607 -729 0
-666 -700 0
-666 -729 0
-700 -729 0
-608 612 668 702 731 0
-612 608 0
-668 608 0
-702 608 0
-731 608 0
-612 -668 0
-612 -702 0
-612 -731 0
-668 -702 0
-668 -731 0
-702 -731 0
-609 614 669 703 732 0
-614 609 0
-669 609 0
-703 609 0
-732 609 0
-614 -669 0
-614 -703 0
-614 -732 0
-669 -703 0
-669 -732 0
-703 -732 0
-610 615 670 704 733 0
-615 610 0
-670 610 0
-704 610 0
-733 610 0
-615 -670 0
-615 -704 0
-615 -733 0
-670 -704 0
-670 -733 0
-704 -733 0
-621 616 671 700 705 729 734 0
-616 621 0
-671 621 0
-700 621 0
-705 621 0
-729 621 0
-734 621 0
-616 -671 0
-616 -700 0
-616 -705 0
-616 -729 0
-616 -734 0
-671 -700 0
-671 -705 0
-671 -729 0
-671 -734 0
-700 -705 0
-700 -729 0
-700 -734 0
-705 -729 0
-705 -734 0
-729 -734 0
-617 620 672 702 706 731 735 0
-620 617 0
-672 617 0
-702 617 0
-706 617 0
-731 617 0
-735 617 0
-620 -672 0
-620 -702 0
-620 -706 0
-620 -731 0
-620 -735 0
-672 -702 0
-672 -706 0
-672 -731 0
-672 -735 0
-702 -706 0
-702 -731 0
-702 -735 0
-706 -731 0
-706 -735 0
-731 -735 0
-618 622 673 703 707 732 736 0
-622 618 0
-673 618 0
-703 618 0
-707 618 0
-732 618 0
-736 618 0
-622 -673 0
-622 -703 0
-622 -707 0
-622 -732 0
-622 -736 0
-673 -703 0
-673 -707 0
-673 -732 0
-673 -736 0
-703 -707 0
-703 -732 0
-703 -736 0
-707 -732 0
-707 -736 0
-732 -736 0
-619 623 674 704 708 733 737 0
-623 619 0
-674 619 0
-704 619 0
-708 619 0
-733 619 0
-737 619 0
-623 -674 0
-623 -704 0
-623 -708 0
-623 -733 0
-623 -737 0
-674 -704 0
-674 -708 0
-674 -733 0
-674 -737 0
-704 -708 0
-704 -733 0
-704 -737 0
-708 -733 0
-708 -737 0
-733 -737 0
-629 624 675 705 709 729 734 738 0
-624 629 0
-675 629 0
-705 629 0
-709 629 0
-729 629 0
-734 629 0
-738 629 0
-624 -675 0
-624 -705 0
-624 -709 0
-624 -729 0
-624 -734 0
-624 -738 0
-675 -705 0
-675 -709 0
-675 -729 0
-675 -734 0
-675 -738 0
-705 -709 0
-705 -729 0
-705 -734 0
-705 -738 0
-709 -729 0
-709 -734 0
-709 -738 0
-729 -734 0
-729 -738 0
-734 -738 0
-625 628 676 706 710 731 735 739 0
-628 625 0
-676 625 0
-706 625 0
-710 625 0
-731 625 0
-735 625 0
-739 625 0
-628 -676 0
-628 -706 0
-628 -710 0
-628 -731 0
-628 -735 0
-628 -739 0
-676 -706 0
-676 -710 0
-676 -731 0
-676 -735 0
-676 -739 0
-706 -710 0
-706 -731 0
-706 -735 0
-706 -739 0
-710 -731 0
-710 -735 0
-710 -739 0
-731 -735 0
-731 -739 0
-735 -739 0
-626 630 677 707 711 732 736 740 0
-630 626 0
-677 626 0
-707 626 0
-711 626 0
-732 626 0
-736 626 0
-740 626 0
-630 -677 0
-630 -707 0
-630 -711 0
-630 -732 0
-630 -736 0
-630 -740 0
-677 -707 0
-677 -711 0
-677 -732 0
-677 -736 0
-677 -740 0
-707 -711 0
-707 -732 0
-707 -736 0
-707 -740 0
-711 -732 0
-711 -736 0
-711 -740 0
-732 -736 0
-732 -740 0
-736 -740 0
-627 631 678 708 712 733 737 741 0
-631 627 0
-678 627 0
-708 627 0
-712 627 0
-733 627 0
-737 627 0
-741 627 0
-631 -678 0
-631 -708 0
-631 -712 0
-631 -733 0
-631 -737 0
-631 -741 0
-678 -708 0
-678 -712 0
-678 -733 0
-678 -737 0
-678 -741 0
-708 -712 0
-708 -733 0
-708 -737 0
-708 -741 0
-712 -733 0
-712 -737 0
-712 -741 0
-733 -737 0
-733 -741 0
-737 -741 0
-637 632 679 709 713 734 738 742 0
-632 637 0
-679 637 0
-709 637 0
-713 637 0
-734 637 0
-738 637 0
-742 637 0
-632 -679 0
-632 -709 0
-632 -713 0
-632 -734 0
-632 -738 0
-632 -742 0
-679 -709 0
-679 -713 0
-679 -734 0
-679 -738 0
-679 -742 0
-709 -713 0
-709 -734 0
-709 -738 0
-709 -742 0
-713 -734 0
-713 -738 0
-713 -742 0
-734 -738 0
-734 -742 0
-738 -742 0
-633 636 680 710 714 735 739 743 0
-636 633 0
-680 633 0
-710 633 0
-714 633 0
-735 633 0
-739 633 0
-743 633 0
-636 -680 0
-636 -710 0
-636 -714 0
-636 -735 0
-636 -739 0
-636 -743 0
-680 -710 0
-680 -714 0
-680 -735 0
-680 -739 0
-680 -743 0
-710 -714 0
-710 -735 0
-710 -739 0
-710 -743 0
-714 -735 0
-714 -739 0
-714 -743 0
-735 -739 0
-735 -743 0
-739 -743 0
-634 638 681 711 715 736 740 744 0
-638 634 0
-681 634 0
-711 634 0
-715 634 0
-736 634 0
-740 634 0
-744 634 0
-638 -681 0
-638 -711 0
-638 -715 0
-638 -736 0
-638 -740 0
-638 -744 0
-681 -711 0
-681 -715 0
-681 -736 0
-681 -740 0
-681 -744 0
-711 -715 0
-711 -736 0
-711 -740 0
-711 -744 0
-715 -736 0
-715 -740 0
-715 -744 0
-736 -740 0
-736 -744 0
-740 -744 0
-635 639 682 712 716 737 741 745 0
-639 635 0
-682 635 0
-712 635 0
-716 635 0
-737 635 0
-741 635 0
-745 635 0
-639 -682 0
-639 -712 0
-639 -716 0
-639 -737 0
-639 -741 0
-639 -745 0
-682 -712 0
-682 -716 0
-682 -737 0
-682 -741 0
-682 -745 0
-712 -716 0
-712 -737 0
-712 -741 0
-712 -745 0
-716 -737 0
-716 -741 0
-716 -745 0
-737 -741 0
-737 -745 0
-741 -745 0
-645 640 683 713 717 738 742 0
-640 645 0
-683 645 0
-713 645 0
-717 645 0
-738 645 0
-742 645 0
-640 -683 0
-640 -713 0
-640 -717 0
-640 -738 0
-640 -742 0
-683 -713 0
-683 -717 0
-683 -738 0
-683 -742 0
-713 -717 0
-713 -738 0
-713 -742 0
-717 -738 0
-717 -742 0
-738 -742 0
-641 644 684 714 718 739 743 0
-644 641 0
-684 641 0
-714 641 0
-718 641 0
-739 641 0
-743 641 0
-644 -684 0
-644 -714 0
-644 -718 0
-644 -739 0
-644 -743 0
-684 -714 0
-684 -718 0
-684 -739 0
-684 -743 0
-714 -718 0
-714 -739 0
-714 -743 0
-718 -739 0
-718 -743 0
-739 -743 0
-642 646 685 715 719 740 744 0
-646 642 0
-685 642 0
-715 642 0
-719 642 0
-740 642 0
-744 642 0
-646 -685 0
-646 -715 0
-646 -719 0
-646 -740 0
-646 -744 0
-685 -715 0
-685 -719 0
-685 -740 0
-685 -744 0
-715 -719 0
-715 -740 0
-715 -744 0
-719 -740 0
-719 -744 0
-740 -744 0
-643 647 686 716 720 741 745 0
-647 643 0
-686 643 0
-716 643 0
-720 643 0
-741 643 0
-745 643 0
-647 -686 0
-647 -716 0
-647 -720 0
-647 -741 0
-647 -745 0
-686 -716 0
-686 -720 0
-686 -741 0
-686 -745 0
-716 -720 0
-716 -741 0
-716 -745 0
-720 -741 0
-720 -745 0
-741 -745 0
-653 648 687 717 742 0
-648 653 0
-687 653 0
-717 653 0
-742 653 0
-648 -687 0
-648 -717 0
-648 -742 0
-687 -717 0
-687 -742 0
-717 -742 0
-649 652 688 718 743 0
-652 649 0
-688 649 0
-718 649 0
-743 649 0
-652 -688 0
-652 -718 0
-652 -743 0
-688 -718 0
-688 -743 0
-718 -743 0
-650 654 689 719 744 0
-654 650 0
-689 650 0
-719 650 0
-744 650 0
-654 -689 0
-654 -719 0
-654 -744 0
-689 -719 0
-689 -744 0
-719 -744 0
-651 655 690 720 745 0
-655 651 0
-690 651 0
-720 651 0
-745 651 0
-655 -690 0
-655 -720 0
-655 -745 0
-690 -720 0
-690 -745 0
-720 -745 0
746 747 748 749 750 751 0
-746 -747 0
-746 -748 0
-746 -749 0
-746 -750 0
-746 -751 0
-747 -748 0
-747 -749 0
-747 -750 0
-747 -751 0
-748 -749 0
-748 -750 0
-748 -751 0
-749 -750 0
-749 -751 0
-750 -751 0
752 753 754 755 0
-752 -753 0
-752 -754 0
-752 -755 0
-753 -754 0
-753 -755 0
-754 -755 0
-756 746 0
-756 752 0
-746 -752 756 0
-756 760 757 758 759 0
-756 -760 -757 0
-756 -760 -758 0
-756 -760 -759 0
-761 746 0
-761 753 0
-746 -753 761 0
-761 762 0
-761 760 758 759 0
-761 -760 -758 0
-761 -760 -759 0
-763 746 0
-763 754 0
-746 -754 763 0
-763 757 0
-763 760 759 0
-763 -760 -759 0
-764 746 0
-764 755 0
-746 -755 764 0
-764 758 0
-764 760 0
-765 747 0
-765 752 0
-747 -752 765 0
-765 760 766 767 768 0
-765 -760 -766 0
-765 -760 -767 0
-765 -760 -768 0
-769 747 0
-769 753 0
-747 -753 769 0
-769 770 0
-769 760 767 768 0
-769 -760 -767 0
-769 -760 -768 0
-771 747 0
-771 754 0
-747 -754 771 0
-771 766 0
-771 760 768 0
-771 -760 -768 0
-772 747 0
-772 755 0
-747 -755 772 0
-772 767 0
-772 760 0
-773 748 0
-773 752 0
-748 -752 773 0
-773 760 774 775 776 0
-773 -760 -774 0
-773 -760 -775 0
-773 -760 -776 0
-777 748 0
-777 753 0
-748 -753 777 0
-777 778 0
-777 760 775 776 0
-777 -760 -775 0
-777 -760 -776 0
-779 748 0
-779 754 0
-748 -754 779 0
-779 774 0
-779 760 776 0
-779 -760 -776 0
-780 748 0
-780 755 0
-748 -755 780 0
-780 775 0
-780 760 0
-781 749 0
-781 752 0
-749 -752 781 0
-781 760 782 783 784 0
-781 -760 -782 0
-781 -760 -783 0
-781 -760 -784 0
-785 749 0
-785 753 0
-749 -753 785 0
-785 786 0
-785 760 783 784 0
-785 -760 -783 0
-785 -760 -784 0
-787 749 0
-787 754 0
-749 -754 787 0
-787 782 0
-787 760 784 0
-787 -760 -784 0
-788 749 0
-788 755 0
-749 -755 788 0
-788 783 0
-788 760 0
-789 750 0
-789 752 0
-750 -752 789 0
-789 760 790 791 792 0
-789 -760 -790 0
-789 -760 -791 0
-789 -760 -792 0
-793 750 0
-793 753 0
-750 -753 793 0
-793 794 0
-793 760 791 792 0
-793 -760 -791 0
-793 -760 -792 0
-795 750 0
-795 754 0
-750 -754 795 0
-795 790 0
-795 760 792 0
-795 -760 -792 0
-796 750 0
-796 755 0
-750 -755 796 0
-796 791 0
-796 760 0
-797 751 0
-797 752 0
-751 -752 797 0
-797 760 798 799 800 0
-797 -760 -798 0
-797 -760 -799 0
-797 -760 -800 0
-801 751 0
-801 753 0
-751 -753 801 0
-801 802 0
-801 760 799 800 0
-801 -760 -799 0
-801 -760 -800 0
-803 751 0
-803 754 0
-751 -754 803 0
-803 798 0
-803 760 800 0
-803 -760 -800 0
-804 751 0
-804 755 0
-751 -755 804 0
-804 799 0
-804 760 0
805 806 807 808 809 810 0
-805 -806 0
-805 -807 0
-805 -808 0
-805 -809 0
-805 -810 0
-806 -807 0
-806 -808 0
-806 -809 0
-806 -810 0
-807 -808 0
-807 -809 0
-807 -810 0
-808 -809 0
-808 -810 0
-809 -810 0
811 812 813 814 0
-811 -812 0
-811 -813 0
-811 -814 0
-812 -813 0
-812 -814 0
-813 -814 0
-815 805 0
-815 811 0
-805 -811 815 0
-815 816 757 758 759 0
-815 -816 -757 0
-815 -816 -758 0
-815 -816 -759 0
-817 805 0
-817 812 0
-805 -812 817 0
-817 762 0
-817 816 758 759 0
-817 -816 -758 0
-817 -816 -759 0
-818 805 0
-818 813 0
-805 -813 818 0
-818 757 0
-818 816 759 0
-818 -816 -759 0
-819 805 0
-819 814 0
-805 -814 819 0
-819 758 0
-819 816 0
-820 806 0
-820 811 0
-806 -811 820 0
-820 816 766 767 768 0
-820 -816 -766 0
-820 -816 -767 0
-820 -816 -768 0
-821 806 0
-821 812 0
-806 -812 821 0
-821 770 0
-821 816 767 768 0
-821 -816 -767 0
-821 -816 -768 0
-822 806 0
-822 813 0
-806 -813 822 0
-822 766 0
-822 816 768 0
-822 -816 -768 0
-823 806 0
-823 814 0
-806 -814 823 0
-823 767 0
-823 816 0
-824 807 0
-824 811 0
-807 -811 824 0
-824 816 774 775 776 0
-824 -816 -774 0
-824 -816 -775 0
-824 -816 -776 0
-825 807 0
-825 812 0
-807 -812 825 0
-825 778 0
-825 816 775 776 0
-825 -816 -775 0
-825 -816 -776 0
-826 807 0
-826 813 0
-807 -813 826 0
-826 774 0
-826 816 776 0
-826 -816 -776 0
-827 807 0
-827 814 0
-807 -814 827 0
-827 775 0
-827 816 0
-828 808 0
-828 811 0
-808 -811 828 0
-828 816 782 783 784 0
-828 -816 -782 0
-828 -816 -783 0
-828 -816 -784 0
-829 808 0
-829 812 0
-808 -812 829 0
-829 786 0
-829 816 783 784 0
-829 -816 -783 0
-829 -816 -784 0
-830 808 0
-830 813 0
-808 -813 830 0
-830 782 0
-830 816 784 0
-830 -816 -784 0
-831 808 0
-831 814 0
-808 -814 831 0
-831 783 0
-831 816 0
-832 809 0
-832 811 0
-809 -811 832 0
-832 816 790 791 792 0
-832 -816 -790 0
-832 -816 -791 0
-832 -816 -792 0
-833 809 0
-833 812 0
-809 -812 833 0
-833 794 0
-833 816 791 792 0
-833 -816 -791 0
-833 -816 -792 0
-834 809 0
-834 813 0
-809 -813 834 0
-834 790 0
-834 816 792 0
-834 -816 -792 0
-835 809 0
-835 814 0
-809 -814 835 0
-835 791 0
-835 816 0
-836 810 0
-836 811 0
-810 -811 836 0
-836 816 798 799 800 0
-836 -816 -798 0
-836 -816 -799 0
-836 -816 -800 0
-837 810 0
-837 812 0
-810 -812 837 0
-837 802 0
-837 816 799 800 0
-837 -816 -799 0
-837 -816 -800 0
-838 810 0
-838 813 0
-810 -813 838 0
-838 798 0
-838 816 800 0
-838 -816 -800 0
-839 810 0
-839 814 0
-810 -814 839 0
-839 799 0
-839 816 0
840 841 842 843 844 0
-840 -841 0
-840 -842 0
-840 -843 0
-840 -844 0
-841 -842 0
-841 -843 0
-841 -844 0
-842 -843 0
-842 -844 0
-843 -844 0
845 846 847 848 0
-845 -846 0
-845 -847 0
-845 -848 0
-846 -847 0
-846 -848 0
-847 -848 0
-849 840 0
-849 845 0
-840 -845 849 0
-849 850 757 758 759 766 767 768 0
-849 -850 -757 0
-849 -850 -758 0
-849 -850 -759 0
-849 -850 -766 0
-849 -850 -767 0
-849 -850 -768 0
-851 840 0
-851 846 0
-840 -846 851 0
-851 762 770 0
-851 850 758 759 767 768 0
-851 -850 -758 0
-851 -850 -759 0
-851 -850 -767 0
-851 -850 -768 0
-852 840 0
-852 847 0
-840 -847 852 0
-852 757 766 0
-852 850 759 768 0
-852 -850 -759 0
-852 -850 -768 0
-853 840 0
-853 848 0
-840 -848 853 0
-853 758 767 0
-853 850 0
-854 841 0
-854 845 0
-841 -845 854 0
-854 850 766 767 768 774 775 776 0
-854 -850 -766 0
-854 -850 -767 0
-854 -850 -768 0
-854 -850 -774 0
-854 -850 -775 0
-854 -850 -776 0
-855 841 0
-855 846 0
-841 -846 855 0
-855 770 778 0
-855 850 767 768 775 776 0
-855 -850 -767 0
-855 -850 -768 0
-855 -850 -775 0
-855 -850 -776 0
-856 841 0
-856 847 0
-841 -847 856 0
-856 766 774 0
-856 850 768 776 0
-856 -850 -768 0
-856 -850 -776 0
-857 841 0
-857 848 0
-841 -848 857 0
-857 767 775 0
-857 850 0
-858 842 0
-858 845 0
-842 -845 858 0
-858 850 774 775 776 782 783 784 0
-858 -850 -774 0
-858 -850 -775 0
-858 -850 -776 0
-858 -850 -782 0
-858 -850 -783 0
-858 -850 -784 0
-859 842 0
-859 846 0
-842 -846 859 0
-859 778 786 0
-859 850 775 776 783 784 0
-859 -850 -775 0
-859 -850 -776 0
-859 -850 -783 0
-859 -850 -784 0
-860 842 0
-860 847 0
-842 -847 860 0
-860 774 782 0
-860 850 776 784 0
-860 -850 -776 0
-860 -850 -784 0
-861 842 0
-861 848 0
-842 -848 861 0
-861 775 783 0
-861 850 0
-862 843 0
-862 845 0
-843 -845 862 0
-862 850 782 783 784 790 791 792 0
-862 -850 -782 0
-862 -850 -783 0
-862 -850 -784 0
-862 -850 -790 0
-862 -850 -791 0
-862 -850 -792 0
-863 843 0
-863 846 0
-843 -846 863 0
-863 786 794 0
-863 850 783 784 791 792 0
-863 -850 -783 0
-863 -850 -784 0
-863 -850 -791 0
-863 -850 -792 0
-864 843 0
-864 847 0
-843 -847 864 0
-864 782 790 0
-864 850 784 792 0
-864 -850 -784 0
-864 -850 -792 0
-865 843 0
-865 848 0
-843 -848 865 0
-865 783 791 0
-865 850 0
-866 844 0
-866 845 0
-844 -845 866 0
-866 850 790 791 792 798 799 800 0
-866 -850 -790 0
-866 -850 -791 0
-866 -850 -792 0
-866 -850 -798 0
-866 -850 -799 0
-866 -850 -800 0
-867 844 0
-867 846 0
-844 -846 867 0
-867 794 802 0
-867 850 791 792 799 800 0
-867 -850 -791 0
-867 -850 -792 0
-867 -850 -799 0
-867 -850 -800 0
-868 844 0
-868 847 0
-844 -847 868 0
-868 790 798 0
-868 850 792 800 0
-868 -850 -792 0
-868 -850 -800 0
-869 844 0
-869 848 0
-844 -848 869 0
-869 791 799 0
-869 850 0
870 871 872 873 0
-870 -871 0
-870 -872 0
-870 -873 0
-871 -872 0
-871 -873 0
-872 -873 0
874 875 876 877 0
-874 -875 0
-874 -876 0
-874 -877 0
-875 -876 0
-875 -877 0
-876 -877 0
-878 870 0
-878 874 0
-870 -874 878 0
-878 879 757 758 759 766 767 768 774 775 776 0
-878 -879 -757 0
-878 -879 -758 0
-878 -879 -759 0
-878 -879 -766 0
-878 -879 -767 0
-878 -879 -768 0
-878 -879 -774 0
-878 -879 -775 0
-878 -879 -776 0
-880 870 0
-880 875 0
-870 -875 880 0
-880 762 770 0
-880 762 778 0
-880 770 778 0
-880 879 758 759 767 768 775 776 0
-880 -879 -758 0
-880 -879 -759 0
-880 -879 -767 0
-880 -879 -768 0
-880 -879 -775 0
-880 -879 -776 0
-881 870 0
-881 876 0
-870 -876 881 0
-881 757 766 0
-881 757 774 0
-881 766 774 0
-881 879 759 768 776 0
-881 -879 -759 0
-881 -879 -768 0
-881 -879 -776 0
-882 870 0
-882 877 0
-870 -877 882 0
-882 758 767 0
-882 758 775 0
-882 767 775 0
-882 879 0
-883 871 0
-883 874 0
-871 -874 883 0
-883 879 766 767 768 774 775 776 782 783 784 0
-883 -879 -766 0
-883 -879 -767 0
-883 -879 -768 0
-883 -879 -774 0
-883 -879 -775 0
-883 -879 -776 0
-883 -879 -782 0
-883 -879 -783 0
-883 -879 -784 0
-884 871 0
-884 875 0
-871 -875 884 0
-884 770 778 0
-884 770 786 0
-884 778 786 0
-884 879 767 768 775 776 783 784 0
-884 -879 -767 0
-884 -879 -768 0
-884 -879 -775 0
-884 -879 -776 0
-884 -879 -783 0
-884 -879 -784 0
-885 871 0
-885 876 0
-871 -876 885 0
-885 766 774 0
-885 766 782 0
-885 774 782 0
-885 879 768 776 784 0
-885 -879 -768 0
-885 -879 -776 0
-885 -879 -784 0
-886 871 0
-886 877 0
-871 -877 886 0
-886 767 775 0
-886 767 783 0
-886 775 783 0
-886 879 0
-887 872 0
-887 874 0
-872 -874 887 0
-887 879 774 775 776 782 783 784 790 791 792 0
-887 -879 -774 0
-887 -879 -775 0
-887 -879 -776 0
-887 -879 -782 0
-887 -879 -783 0
-887 -879 -784 0
-887 -879 -790 0
-887 -879 -791 0
-887 -879 -792 0
-888 872 0
-888 875 0
-872 -875 888 0
-888 778 786 0
-888 778 794 0
-888 786 794 0
-888 879 775 776 783 784 791 792 0
-888 -879 -775 0
-888 -879 -776 0
-888 -879 -783 0
-888 -879 -784 0
-888 -879 -791 0
-888 -879 -792 0
-889 872 0
-889 876 0
-872 -876 889 0
-889 774 782 0
-889 774 790 0
-889 782 790 0
-889 879 776 784 792 0
-889 -879 -776 0
-889 -879 -784 0
-889 -879 -792 0
-890 872 0
-890 877 0
-872 -877 890 0
-890 775 783 0
-890 775 791 0
-890 783 791 0
-890 879 0
-891 873 0
-891 874 0
-873 -874 891 0
-891 879 782 783 784 790 791 792 798 799 800 0
-891 -879 -782 0
-891 -879 -783 0
-891 -879 -784 0
-891 -879 -790 0
-891 -879 -791 0
-891 -879 -792 0
-891 -879 -798 0
-891 -879 -799 0
-891 -879 -800 0
-892 873 0
-892 875 0
-873 -875 892 0
-892 786 794 0
-892 786 802 0
-892 794 802 0
-892 879 783 784 791 792 799 800 0
-892 -879 -783 0
-892 -879 -784 0
-892 -879 -791 0
-892 -879 -792 0
-892 -879 -799 0
-892 -879 -800 0
-893 873 0
-893 876 0
-873 -876 893 0
-893 782 790 0
-893 782 798 0
-893 790 798 0
-893 879 784 792 800 0
-893 -879 -784 0
-893 -879 -792 0
-893 -879 -800 0
-894 873 0
-894 877 0
-873 -877 894 0
-894 783 791 0
-894 783 799 0
-894 791 799 0
-894 879 0
-762 756 815 849 878 0
-756 762 0
-815 762 0
-849 762 0
-878 762 0
-756 -815 0
-756 -849 0
-756 -878 0
-815 -849 0
-815 -878 0
-849 -878 0
-757 761 817 851 880 0
-761 757 0
-817 757 0
-851 757 0
-880 757 0
-761 -817 0
-761 -851 0
-761 -880 0
-817 -851 0
-817 -880 0
-851 -880 0
-758 763 818 852 881 0
-763 758 0
-818 758 0
-852 758 0
-881 758 0
-763 -818 0
-763 -852 0
-763 -881 0
-818 -852 0
-818 -881 0
-852 -881 0
-759 764 819 853 882 0
-764 759 0
-819 759 0
-853 759 0
-882 759 0
-764 -819 0
-764 -853 0
-764 -882 0
-819 -853 0
-819 -882 0
-853 -882 0
-770 765 820 849 854 878 883 0
-765 770 0
-820 770 0
-849 770 0
-854 770 0
-878 770 0
-883 770 0
-765 -820 0
-765 -849 0
-765 -854 0
-765 -878 0
-765 -883 0
-820 -849 0
-820 -854 0
-820 -878 0
-820 -883 0
-849 -854 0
-849 -878 0
-849 -883 0
-854 -878 0
-854 -883 0
-878 -883 0
-766 769 821 851 855 880 884 0
-769 766 0
-821 766 0
-851 766 0
-855 766 0
-880 766 0
-884 766 0
-769 -821 0
-769 -851 0
-769 -855 0
-769 -880 0
-769 -884 0
-821 -851 0
-821 -855 0
-821 -880 0
-821 -884 0
-851 -855 0
-851 -880 0
-851 -884 0
-855 -880 0
-855 -884 0
-880 -884 0
-767 771 822 852 856 881 885 0
-771 767 0
-822 767 0
-852 767 0
-856 767 0
-881 767 0
-885 767 0
-771 -822 0
-771 -852 0
-771 -856 0
-771 -881 0
-771 -885 0
-822 -852 0
-822 -856 0
-822 -881 0
-822 -885 0
-852 -856 0
-852 -881 0
-852 -885 0
-856 -881 0
-856 -885 0
-881 -885 0
-768 772 823 853 857 882 886 0
-772 768 0
-823 768 0
-853 768 0
-857 768 0
-882 768 0
-886 768 0
-772 -823 0
-772 -853 0
-772 -857 0
-772 -882 0
-772 -886 0
-823 -853 0
-823 -857 0
-823 -882 0
-823 -886 0
-853 -857 0
-853 -882 0
-853 -886 0
-857 -882 0
-857 -886 0
-882 -886 0
-778 773 824 854 858 878 883 887 0
-773 778 0
-824 778 0
-854 778 0
-858 778 0
-878 778 0
-883 778 0
-887 778 0
-773 -824 0
-773 -854 0
-773 -858 0
-773 -878 0
-773 -883 0
-773 -887 0
-824 -854 0
-824 -858 0
-824 -878 0
-824 -883 0
-824 -887 0
-854 -858 0
-854 -878 0
-854 -883 0
-854 -887 0
-858 -878 0
-858 -883 0
-858 -887 0
-878 -883 0
-878 -887 0
-883 -887 0
-774 777 825 855 859 880 884 888 0
-777 774 0
-825 774 0
-855 774 0
-859 774 0
-880 774 0
-884 774 0
-888 774 0
-777 -825 0
-777 -855 0
-777 -859 0
-777 -880 0
-777 -884 0
-777 -888 0
-825 -855 0
-825 -859 0
-825 -880 0
-825 -884 0
-825 -888 0
-855 -859 0
-855 -880 0
-855 -884 0
-855 -888 0
-859 -880 0
-859 -884 0
-859 -888 0
-880 -884 0
-880 -888 0
-884 -888 0
-775 779 826 856 860 881 885 889 0
-779 775 0
-826 775 0
-856 775 0
-860 775 0
-881 775 0
-885 775 0
-889 775 0
-779 -826 0
-779 -856 0
-779 -860 0
-779 -881 0
-779 -885 0
-779 -889 0
-826 -856 0
-826 -860 0
-826 -881 0
-826 -885 0
-826 -889 0
-856 -860 0
-856 -881 0
-856 -885 0
-856 -889 0
-860 -881 0
-860 -885 0
-860 -889 0
-881 -885 0
-881 -889 0
-885 -889 0
-776 780 827 857 861 882 886 890 0
-780 776 0
-827 776 0
-857 776 0
-861 776 0
-882 776 0
-886 776 0
-890 776 0
-780 -827 0
-780 -857 0
-780 -861 0
-780 -882 0
-780 -886 0
-780 -890 0
-827 -857 0
-827 -861 0
-827 -882 0
-827 -886 0
-827 -890 0
-857 -861 0
-857 -882 0
-857 -886 0
-857 -890 0
-861 -882 0
-861 -886 0
-861 -890 0
-882 -886 0
-882 -890 0
-886 -890 0
-786 781 828 858 862 883 887 891 0
-781 786 0
-828 786 0
-858 786 0
-862 786 0
-883 786 0
-887 786 0
-891 786 0
-781 -828 0
-781 -858 0
-781 -862 0
-781 -883 0
-781 -887 0
-781 -891 0
-828 -858 0
-828 -862 0
-828 -883 0
-828 -887 0
-828 -891 0
-858 -862 0
-858 -883 0
-858 -887 0
-858 -891 0
-862 -883 0
-862 -887 0
-862 -891 0
-883 -887 0
-883 -891 0
-887 -891 0
-782 785 829 859 863 884 888 892 0
-785 782 0
-829 782 0
-859 782 0
-863 782 0
-884 782 0
-888 782 0
-892 782 0
-785 -829 0
-785 -859 0
-785 -863 0
-785 -884 0
-785 -888 0
-785 -892 0
-829 -859 0
-829 -863 0
-829 -884 0
-829 -888 0
-829 -892 0
-859 -863 0
-859 -884 0
-859 -888 0
-859 -892 0
-863 -884 0
-863 -888 0
-863 -892 0
-884 -888 0
-884 -892 0
-888 -892 0
-783 787 830 860 864 885 889 893 0
-787 783 0
-830 783 0
-860 783 0
-864 783 0
-885 783 0
-889 783 0
-893 783 0
-787 -830 0
-787 -860 0
-787 -864 0
-787 -885 0
-787 -889 0
-787 -893 0
-830 -860 0
-830 -864 0
-830 -885 0
-830 -889 0
-830 -893 0
-860 -864 0
-860 -885 0
-860 -889 0
-860 -893 0
-864 -885 0
-864 -889 0
-864 -893 0
-885 -889 0
-885 -893 0
-889 -893 0
-784 788 831 861 865 886 890 894 0
-788 784 0
-831 784 0
-861 784 0
-865 784 0
-886 784 0
-890 784 0
-894 784 0
-788 -831 0
-788 -861 0
-788 -865 0
-788 -886 0
-788 -890 0
-788 -894 0
-831 -861 0
-831 -865 0
-831 -886 0
-831 -890 0
-831 -894 0
-861 -865 0
-861 -886 0
-861 -890 0
-861 -894 0
-865 -886 0
-865 -890 0
-865 -894 0
-886 -890 0
-886 -894 0
-890 -894 0
-794 789 832 862 866 887 891 0
-789 794 0
-832 794 0
-862 794 0
-866 794 0
-887 794 0
-891 794 0
-789 -832 0
-789 -862 0
-789 -866 0
-789 -887 0
-789 -891 0
-832 -862 0
-832 -866 0
-832 -887 0
-832 -891 0
-862 -866 0
-862 -887 0
-862 -891 0
-866 -887 0
-866 -891 0
-887 -891 0
-790 793 833 863 867 888 892 0
-793 790 0
-833 790 0
-863 790 0
-867 790 0
-888 790 0
-892 790 0
-793 -833 0
-793 -863 0
-793 -867 0
-793 -888 0
-793 -892 0
-833 -863 0
-833 -867 0
-833 -888 0
-833 -892 0
-863 -867 0
-863 -888 0
-863 -892 0
-867 -888 0
-867 -892 0
-888 -892 0
-791 795 834 864 868 889 893 0
-795 791 0
-834 791 0
-864 791 0
-868 791 0
-889 791 0
-893 791 0
-795 -834 0
-795 -864 0
-795 -868 0
-795 -889 0
-795 -893 0
-834 -864 0
-834 -868 0
-834 -889 0
-834 -893 0
-864 -868 0
-864 -889 0
-864 -893 0
-868 -889 0
-868 -893 0
-889 -893 0
-792 796 835 865 869 890 894 0
-796 792 0
-835 792 0
-865 792 0
-869 792 0
-890 792 0
-894 792 0
-796 -835 0
-796 -865 0
-796 -869 0
-796 -890 0
-796 -894 0
-835 -865 0
-835 -869 0
-835 -890 0
-835 -894 0
-865 -869 0
-865 -890 0
-865 -894 0
-869 -890 0
-869 -894 0
-890 -894 0
-802 797 836 866 891 0
-797 802 0
-836 802 0
-866 802 0
-891 802 0
-797 -836 0
-797 -866 0
-797 -891 0
-836 -866 0
-836 -891 0
-866 -891 0
-798 801 837 867 892 0
-801 798 0
-837 798 0
-867 798 0
-892 798 0
-801 -837 0
-801 -867 0
-801 -892 0
-837 -867 0
-837 -892 0
-867 -892 0
-799 803 838 868 893 0
-803 799 0
-838 799 0
-868 799 0
-893 799 0
-803 -838 0
-803 -868 0
-803 -893 0
-838 -868 0
-838 -893 0
-868 -893 0
-800 804 839 869 894 0
-804 800 0
-839 800 0
-869 800 0
-894 800 0
-804 -839 0
-804 -869 0
-804 -894 0
-839 -869 0
-839 -894 0
-869 -894 0
895 896 897 898 899 900 0
-895 -896 0
-895 -897 0
-895 -898 0
-895 -899 0
-895 -900 0
-896 -897 0
-896 -898 0
-896 -899 0
-896 -900 0
-897 -898 0
-897 -899 0
-897 -900 0
-898 -899 0
-898 -900 0
-899 -900 0
901 902 903 904 0
-901 -902 0
-901 -903 0
-901 -904 0
-902 -903 0
-902 -904 0
-903 -904 0
-905 895 0
-905 901 0
-895 -901 905 0
-905 909 906 907 908 0
-905 -909 -906 0
-905 -909 -907 0
-905 -909 -908 0
-910 895 0
-910 902 0
-895 -902 910 0
-910 911 0
-910 909 907 908 0
-910 -909 -907 0
-910 -909 -908 0
-912 895 0
-912 903 0
-895 -903 912 0
-912 906 0
-912 909 908 0
-912 -909 -908 0
-913 895 0
-913 904 0
-895 -904 913 0
-913 907 0
-913 909 0
-914 896 0
-914 901 0
-896 -901 914 0
-914 909 915 916 917 0
-914 -909 -915 0
-914 -909 -916 0
-914 -909 -917 0
-918 896 0
-918 902 0
-896 -902 918 0
-918 919 0
-918 909 916 917 0
-918 -909 -916 0
-918 -909 -917 0
-920 896 0
-920 903 0
-896 -903 920 0
-920 915 0
-920 909 917 0
-920 -909 -917 0
-921 896 0
-921 904 0
-896 -904 921 0
-921 916 0
-921 909 0
-922 897 0
-922 901 0
-897 -901 922 0
-922 909 923 924 925 0
-922 -909 -923 0
-922 -909 -924 0
-922 -909 -925 0
-926 897 0
-926 902 0
-897 -902 926 0
-926 927 0
-926 909 924 925 0
-926 -909 -924 0
-926 -909 -925 0
-928 897 0
-928 903 0
-897 -903 928 0
-928 923 0
-928 909 925 0
-928 -909 -925 0
-929 897 0
-929 904 0
-897 -904 929 0
-929 924 0
-929 909 0
-930 898 0
-930 901 0
-898 -901 930 0
-930 909 931 932 933 0
-930 -909 -931 0
-930 -909 -932 0
-930 -909 -933 0
-934 898 0
-934 902 0
-898 -902 934 0
-934 935 0
-934 909 932 933 0
-934 -909 -932 0
-934 -909 -933 0
-936 898 0
-936 903 0
-898 -903 936 0
-936 931 0
-936 909 933 0
-936 -909 -933 0
-937 898 0
-937 904 0
-898 -904 937 0
-937 932 0
-937 909 0
-938 899 0
-938 901 0
-899 -901 938 0
-938 909 939 940 941 0
-938 -909 -939 0
-938 -909 -940 0
-938 -909 -941 0
-942 899 0
-942 902 0
-899 -902 942 0
-942 943 0
-942 909 940 941 0
-942 -909 -940 0
-942 -909 -941 0
-944 899 0
-944 903 0
-899 -903 944 0
-944 939 0
-944 909 941 0
-944 -909 -941 0
-945 899 0
-945 904 0
-899 -904 945 0
-945 940 0
-945 909 0
-946 900 0
-946 901 0
-900 -901 946 0
-946 909 947 948 949 0
-946 -909 -947 0
-946 -909 -948 0
-946 -909 -949 0
-950 900 0
-950 902 0
-900 -902 950 0
-950 951 0
-950 909 948 949 0
-950 -909 -948 0
-950 -909 -949 0
-952 900 0
-952 903 0
-900 -903 952 0
-952 947 0
-952 909 949 0
-952 -909 -949 0
-953 900 0
-953 904 0
-900 -904 953 0
-953 948 0
-953 909 0
954 955 956 957 958 959 0
-954 -955 0
-954 -956 0
-954 -957 0
-954 -958 0
-954 -959 0
-955 -956 0
-955 -957 0
-955 -958 0
-955 -959 0
-956 -957 0
-956 -958 0
-956 -959 0
-957 -958 0
-957 -959 0
-958 -959 0
960 961 962 963 0
-960 -961 0
-960 -962 0
-960 -963 0
-961 -962 0
-961 -963 0
-962 -963 0
-964 954 0
-964 960 0
-954 -960 964 0
-964 965 906 907 908 0
-964 -965 -906 0
-964 -965 -907 0
-964 -965 -908 0
-966 954 0
-966 961 0
-954 -961 966 0
-966 911 0
-966 965 907 908 0
-966 -965 -907 0
-966 -965 -908 0
-967 954 0
-967 962 0
-954 -962 967 0
-967 906 0
-967 965 908 0
-967 -965 -908 0
-968 954 0
-968 963 0
-954 -963 968 0
-968 907 0
-968 965 0
-969 955 0
-969 960 0
-955 -960 969 0
-969 965 915 916 917 0
-969 -965 -915 0
-969 -965 -916 0
-969 -965 -917 0
-970 955 0
-970 961 0
-955 -961 970 0
-970 919 0
-970 965 916 917 0
-970 -965 -916 0
-970 -965 -917 0
-971 955 0
-971 962 0
-955 -962 971 0
-971 915 0
-971 965 917 0
-971 -965 -917 0
-972 955 0
-972 963 0
-955 -963 972 0
-972 916 0
-972 965 0
-973 956 0
-973 960 0
-956 -960 973 0
-973 965 923 924 925 0
-973 -965 -923 0
-973 -965 -924 0
-973 -965 -925 0
-974 956 0
-974 961 0
-956 -961 974 0
-974 927 0
-974 965 924 925 0
-974 -965 -924 0
-974 -965 -925 0
-975 956 0
-975 962 0
-956 -962 975 0
-975 923 0
-975 965 925 0
-975 -965 -925 0
-976 956 0
-976 963 0
-956 -963 976 0
-976 924 0
-976 965 0
-977 957 0
-977 960 0
-957 -960 977 0
-977 965 931 932 933 0
-977 -965 -931 0
-977 -965 -932 0
-977 -965 -933 0
-978 957 0
-978 961 0
-957 -961 978 0
-978 935 0
-978 965 932 933 0
-978 -965 -932 0
-978 -965 -933 0
-979 957 0
-979 962 0
-957 -962 979 0
-979 931 0
-979 965 933 0
-979 -965 -933 0
-980 957 0
-980 963 0
-957 -963 980 0
-980 932 0
-980 965 0
-981 958 0
-981 960 0
-958 -960 981 0
-981 965 939 940 941 0
-981 -965 -939 0
-981 -965 -940 0
-981 -965 -941 0
-982 958 0
-982 961 0
-958 -961 982 0
-982 943 0
-982 965 940 941 0
-982 -965 -940 0
-982 -965 -941 0
-983 958 0
-983 962 0
-958 -962 983 0
-983 939 0
-983 965 941 0
-983 -965 -941 0
-984 958 0
-984 963 0
-958 -963 984 0
-984 940 0
-984 965 0
-985 959 0
-985 960 0
-959 -960 985 0
-985 965 947 948 949 0
-985 -965 -947 0
-985 -965 -948 0
-985 -965 -949 0
-986 959 0
-986 961 0
-959 -961 986 0
-986 951 0
-986 965 948 949 0
-986 -965 -948 0
-986 -965 -949 0
-987 959 0
-987 962 0
-959 -962 987 0
-987 947 0
-987 965 949 0
-987 -965 -949 0
-988 959 0
-988 963 0
-959 -963 988 0
-988 948 0
-988 965 0
989 990 991 992 993 0
-989 -990 0
-989 -991 0
-989 -992 0
-989 -993 0
-990 -991 0
-990 -992 0
-990 -993 0
-991 -992 0
-991 -993 0
-992 -993 0
994 995 996 997 0
-994 -995 0
-994 -996 0
-994 -997 0
-995 -996 0
-995 -997 0
-996 -997 0
-998 989 0
-998 994 0
-989 -994 998 0
-998 999 906 907 908 915 916 917 0
-998 -999 -906 0
-998 -999 -907 0
-998 -999 -908 0
-998 -999 -915 0
-998 -999 -916 0
-998 -999 -917 0
-1000 989 0
-1000 995 0
-989 -995 1000 0
-1000 911 919 0
-1000 999 907 908 916 917 0
-1000 -999 -907 0
-1000 -999 -908 0
-1000 -999 -916 0
-1000 -999 -917 0
-1001 989 0
-1001 996 0
-989 -996 1001 0
-1001 906 915 0
-1001 999 908 917 0
-1001 -999 -908 0
-1001 -999 -917 0
-1002 989 0
-1002 997 0
-989 -997 1002 0
-1002 907 916 0
-1002 999 0
-1003 990 0
-1003 994 0
-990 -994 1003 0
-1003 999 915 916 917 923 924 925 0
-1003 -999 -915 0
-1003 -999 -916 0
-1003 -999 -917 0
-1003 -999 -923 0
-1003 -999 -924 0
-1003 -999 -925 0
-1004 990 0
-1004 995 0
-990 -995 1004 0
-1004 919 927 0
-1004 999 916 917 924 925 0
-1004 -999 -916 0
-1004 -999 -917 0
-1004 -999 -924 0
-1004 -999 -925 0
-1005 990 0
-1005 996 0
-990 -996 1005 0
-1005 915 923 0
-1005 999 917 925 0
-1005 -999 -917 0
-1005 -999 -925 0
-1006 990 0
-1006 997 0
-990 -997 1006 0
-1006 916 924 0
-1006 999 0
-1007 991 0
-1007 994 0
-991 -994 1007 0
-1007 999 923 924 925 931 932 933 0
-1007 -999 -923 0
-1007 -999 -924 0
-1007 -999 -925 0
-1007 -999 -931 0
-1007 -999 -932 0
-1007 -999 -933 0
-1008 991 0
-1008 995 0
-991 -995 1008 0
-1008 927 935 0
-1008 999 924 925 932 933 0
-1008 -999 -924 0
-1008 -999 -925 0
-1008 -999 -932 0
-1008 -999 -933 0
-1009 991 0
-1009 996 0
-991 -996 1009 0
-1009 923 931 0
-1009 999 925 933 0
-1009 -999 -925 0
-1009 -999 -933 0
-1010 991 0
-1010 997 0
-991 -997 1010 0
-1010 924 932 0
-1010 999 0
-1011 992 0
-1011 994 0
-992 -994 1011 0
-1011 999 931 932 933 939 940 941 0
-1011 -999 -931 0
-1011 -999 -932 0
-1011 -999 -933 0
-1011 -999 -939 0
-1011 -999 -940 0
-1011 -999 -941 0
-1012 992 0
-1012 995 0
-992 -995 1012 0
-1012 935 943 0
-1012 999 932 933 940 941 0
-1012 -999 -932 0
-1012 -999 -933 0
-1012 -999 -940 0
-1012 -999 -941 0
-1013 992 0
-1013 996 0
-992 -996 1013 0
-1013 931 939 0
-1013 999 933 941 0
-1013 -999 -933 0
-1013 -999 -941 0
-1014 992 0
-1014 997 0
-992 -997 1014 0
-1014 932 940 0
-1014 999 0
-1015 993 0
-1015 994 0
-993 -994 1015 0
-1015 999 939 940 941 947 948 949 0
-1015 -999 -939 0
-1015 -999 -940 0
-1015 -999 -941 0
-1015 -999 -947 0
-1015 -999 -948 0
-1015 -999 -949 0
-1016 993 0
-1016 995 0
-993 -995 1016 0
-1016 943 951 0
-1016 999 940 941 948 949 0
-1016 -999 -940 0
-1016 -999 -941 0
-1016 -999 -948 0
-1016 -999 -949 0
-1017 993 0
-1017 996 0
-993 -996 1017 0
-1017 939 947 0
-1017 999 941 949 0
-1017 -999 -941 0
-1017 -999 -949 0
-1018 993 0
-1018 997 0
-993 -997 1018 0
-1018 940 948 0
-1018 999 0
1019 1020 1021 1022 0
-1019 -1020 0
-1019 -1021 0
-1019 -1022 0
-1020 -1021 0
-1020 -1022 0
-1021 -1022 0
1023 1024 1025 1026 0
-1023 -1024 0
-1023 -1025 0
-1023 -1026 0
-1024 -1025 0
-1024 -1026 0
-1025 -1026 0
-1027 1019 0
-1027 1023 0
-1019 -1023 1027 0
-1027 1028 906 907 908 915 916 917 923 924 925 0
-1027 -1028 -906 0
-1027 -1028 -907 0
-1027 -1028 -908 0
-1027 -1028 -915 0
-1027 -1028 -916 0
-1027 -1028 -917 0
-1027 -1028 -923 0
-1027 -1028 -924 0
-1027 -1028 -925 0
-1029 1019 0
-1029 1024 0
-1019 -1024 1029 0
-1029 911 919 0
-1029 911 927 0
-1029 919 927 0
-1029 1028 907 908 916 917 924 925 0
-1029 -1028 -907 0
-1029 -1028 -908 0
-1029 -1028 -916 0
-1029 -1028 -917 0
-1029 -1028 -924 0
-1029 -1028 -925 0
-1030 1019 0
-1030 1025 0
-1019 -1025 1030 0
-1030 906 915 0
-1030 906 923 0
-1030 915 923 0
-1030 1028 908 917 925 0
-1030 -1028 -908 0
-1030 -1028 -917 0
-1030 -1028 -925 0
-1031 1019 0
-1031 1026 0
-1019 -1026 1031 0
-1031 907 916 0
-1031 907 924 0
-1031 916 924 0
-1031 1028 0
-1032 1020 0
-1032 1023 0
-1020 -1023 1032 0
-1032 1028 915 916 917 923 924 925 931 932 933 0
-1032 -1028 -915 0
-1032 -1028 -916 0
-1032 -1028 -917 0
-1032 -1028 -923 0
-1032 -1028 -924 0
-1032 -1028 -925 0
-1032 -1028 -931 0
-1032 -1028 -932 0
-1032 -1028 -933 0
-1033 1020 0
-1033 1024 0
-1020 -1024 1033 0
-1033 919 927 0
-1033 919 935 0
-1033 927 935 0
-1033 1028 916 917 924 925 932 933 0
-1033 -1028 -916 0
-1033 -1028 -917 0
-1033 -1028 -924 0
-1033 -1028 -925 0
-1033 -1028 -932 0
-1033 -1028 -933 0
-1034 1020 0
-1034 1025 0
-1020 -1025 1034 0
-1034 915 923 0
-1034 915 931 0
-1034 923 931 0
-1034 1028 917 925 933 0
-1034 -1028 -917 0
-1034 -1028 -925 0
-1034 -1028 -933 0
-1035 1020 0
-1035 1026 0
-1020 -1026 1035 0
-1035 916 924 0
-1035 916 932 0
-1035 924 932 0
-1035 1028 0
-1036 1021 0
-1036 1023 0
-1021 -1023 1036 0
-1036 1028 923 924 925 931 932 933 939 940 941 0
-1036 -1028 -923 0
-1036 -1028 -924 0
-1036 -1028 -925 0
-1036 -1028 -931 0
-1036 -1028 -932 0
-1036 -1028 -933 0
-1036 -1028 -939 0
-1036 -1028 -940 0
-1036 -1028 -941 0
-1037 1021 0
-1037 1024 0
-1021 -1024 1037 0
-1037 927 935 0
-1037 927 943 0
-1037 935 943 0
-1037 1028 924 925 932 933 940 941 0
-1037 -1028 -924 0
-1037 -1028 -925 0
-1037 -1028 -932 0
-1037 -1028 -933 0
-1037 -1028 -940 0
-1037 -1028 -941 0
-1038 1021 0
-1038 1025 0
-1021 -1025 1038 0
-1038 923 931 0
-1038 923 939 0
-1038 931 939 0
-1038 1028 925 933 941 0
-1038 -1028 -925 0
-1038 -1028 -933 0
-1038 -1028 -941 0
-1039 1021 0
-1039 1026 0
-1021 -1026 1039 0
-1039 924 932 0
-1039 924 940 0
-1039 932 940 0
-1039 1028 0
-1040 1022 0
-1040 1023 0
-1022 -1023 1040 0
-1040 1028 931 932 933 939 940 941 947 948 949 0
-1040 -1028 -931 0
-1040 -1028 -932 0
-1040 -1028 -933 0
-1040 -1028 -939 0
-1040 -1028 -940 0
-1040 -1028 -941 0
-1040 -1028 -947 0
-1040 -1028 -948 0
-1040 -1028 -949 0
-1041 1022 0
-1041 1024 0
-1022 -1024 1041 0
-1041 935 943 0
-1041 935 951 0
-1041 943 951 0
-1041 1028 932 933 940 941 948 949 0
-1041 -1028 -932 0
-1041 -1028 -933 0
-1041 -1028 -940 0
-1041 -1028 -941 0
-1041 -1028 -948 0
-1041 -1028 -949 0
-1042 1022 0
-1042 1025 0
-1022 -1025 1042 0
-1042 931 939 0
-1042 931 947 0
-1042 939 947 0
-1042 1028 933 941 949 0
-1042 -1028 -933 0
-1042 -1028 -941 0
-1042 -1028 -949 0
-1043 1022 0
-1043 1026 0
-1022 -1026 1043 0
-1043 932 940 0
-1043 932 948 0
-1043 940 948 0
-1043 1028 0
-911 905 964 998 1027 0
-905 911 0
-964 911 0
-998 911 0
-1027 911 0
-905 -964 0
-905 -998 0
-905 -1027 0
-964 -998 0
-964 -1027 0
-998 -1027 0
-906 910 966 1000 1029 0
-910 906 0
-966 906 0
-1000 906 0
-1029 906 0
-910 -966 0
-910 -1000 0
-910 -1029 0
-966 -1000 0
-966 -1029 0
-1000 -1029 0
-907 912 967 1001 1030 0
-912 907 0
-967 907 0
-1001 907 0
-1030 907 0
-912 -967 0
-912 -1001 0
-912 -1030 0
-967 -1001 0
-967 -1030 0
-1001 -1030 0
-908 913 968 1002 1031 0
-913 908 0
-968 908 0
-1002 908 0
-1031 908 0
-913 -968 0
-913 -1002 0
-913 -1031 0
-968 -1002 0
-968 -1031 0
-1002 -1031 0
-919 914 969 998 1003 1027 1032 0
-914 919 0
-969 919 0
-998 919 0
-1003 919 0
-1027 919 0
-1032 919 0
-914 -969 0
-914 -998 0
-914 -1003 0
-914 -1027 0
-914 -1032 0
-969 -998 0
-969 -1003 0
-969 -1027 0
-969 -1032 0
-998 -1003 0
-998 -1027 0
-998 -1032 0
-1003 -1027 0
-1003 -1032 0
-1027 -1032 0
-915 918 970 1000 1004 1029 1033 0
-918 915 0
-970 915 0
-1000 915 0
-1004 915 0
-1029 915 0
-1033 915 0
-918 -970 0
-918 -1000 0
-918 -1004 0
-918 -1029 0
-918 -1033 0
-970 -1000 0
-970 -1004 0
-970 -1029 0
-970 -1033 0
-1000 -1004 0
-1000 -1029 0
-1000 -1033 0
-1004 -1029 0
-1004 -1033 0
-1029 -1033 0
-916 920 971 1001 1005 1030 1034 0
-920 916 0
-971 916 0
-1001 916 0
-1005 916 0
-1030 916 0
-1034 916 0
-920 -971 0
-920 -1001 0
-920 -1005 0
-920 -1030 0
-920 -1034 0
-971 -1001 0
-971 -1005 0
-971 -1030 0
-971 -1034 0
-1001 -1005 0
-1001 -1030 0
-1001 -1034 0
-1005 -1030 0
-1005 -1034 0
-1030 -1034 0
-917 921 972 1002 1006 1031 1035 0
-921 917 0
-972 917 0
-1002 917 0
-1006 917 0
-1031 917 0
-1035 917 0
-921 -972 0
-921 -1002 0
-921 -1006 0
-921 -1031 0
-921 -1035 0
-972 -1002 0
-972 -1006 0
-972 -1031 0
-972 -1035 0
-1002 -1006 0
-1002 -1031 0
-1002 -1035 0
-1006 -1031 0
-1006 -1035 0
-1031 -1035 0
-927 922 973 1003 1007 1027 1032 1036 0
-922 927 0
-973 927 0
-1003 927 0
-1007 927 0
-1027 927 0
-1032 927 0
-1036 927 0
-922 -973 0
-922 -1003 0
-922 -1007 0
-922 -1027 0
-922 -1032 0
-922 -1036 0
-973 -1003 0
-973 -1007 0
-973 -1027 0
-973 -1032 0
-973 -1036 0
-1003 -1007 0
-1003 -1027 0
-1003 -1032 0
-1003 -1036 0
-1007 -1027 0
-1007 -1032 0
-1007 -1036 0
-1027 -1032 0
-1027 -1036 0
-1032 -1036 0
-923 926 974 1004 1008 1029 1033 1037 0
-926 923 0
-974 923 0
-1004 923 0
-1008 923 0
-1029 923 0
-1033 923 0
-1037 923 0
-926 -974 0
-926 -1004 0
-926 -1008 0
-926 -1029 0
-926 -1033 0
-926 -1037 0
-974 -1004 0
-974 -1008 0
-974 -1029 0
-974 -1033 0
-974 -1037 0
-1004 -1008 0
-1004 -1029 0
-1004 -1033 0
-1004 -1037 0
-1008 -1029 0
-1008 -1033 0
-1008 -1037 0
-1029 -1033 0
-1029 -1037 0
-1033 -1037 0
-924 928 975 1005 1009 1030 1034 1038 0
-928 924 0
-975 924 0
-1005 924 0
-1009 924 0
-1030 924 0
-1034 924 0
-1038 924 0
-928 -975 0
-928 -1005 0
-928 -1009 0
-928 -1030 0
-928 -1034 0
-928 -1038 0
-975 -1005 0
-975 -1009 0
-975 -1030 0
-975 -1034 0
-975 -1038 0
-1005 -1009 0
-1005 -1030 0
-1005 -1034 0
-1005 -1038 0
-1009 -1030 0
-1009 -1034 0
-1009 -1038 0
-1030 -1034 0
-1030 -1038 0
-1034 -1038 0
-925 929 976 1006 1010 1031 1035 1039 0
-929 925 0
-976 925 0
-1006 925 0
-1010 925 0
-1031 925 0
-1035 925 0
-1039 925 0
-929 -976 0
-929 -1006 0
-929 -1010 0
-929 -1031 0
-929 -1035 0
-929 -1039 0
-976 -1006 0
-976 -1010 0
-976 -1031 0
-976 -1035 0
-976 -1039 0
-1006 -1010 0
-1006 -1031 0
-1006 -1035 0
-1006 -1039 0
-1010 -1031 0
-1010 -1035 0
-1010 -1039 0
-1031 -1035 0
-1031 -1039 0
-1035 -1039 0
-935 930 977 1007 1011 1032 1036 1040 0
-930 935 0
-977 935 0
-1007 935 0
-1011 935 0
-1032 935 0
-1036 935 0
-1040 935 0
-930 -977 0
-930 -1007 0
-930 -1011 0
-930 -1032 0
-930 -1036 0
-930 -1040 0
-977 -1007 0
-977 -1011 0
-977 -1032 0
-977 -1036 0
-977 -1040 0
-1007 -1011 0
-1007 -1032 0
-1007 -1036 0
-1007 -1040 0
-1011 -1032 0
-1011 -1036 0
-1011 -1040 0
-1032 -1036 0
-1032 -1040 0
-1036 -1040 0
-931 934 978 1008 1012 1033 1037 1041 0
-934 931 0
-978 931 0
-1008 931 0
-1012 931 0
-1033 931 0
-1037 931 0
-1041 931 0
-934 -978 0
-934 -1008 0
-934 -1012 0
-934 -1033 0
-934 -1037 0
-934 -1041 0
-978 -1008 0
-978 -1012 0
-978 -1033 0
-978 -1037 0
-978 -1041 0
-1008 -1012 0
-1008 -1033 0
-1008 -1037 0
-1008 -1041 0
-1012 -1033 0
-1012 -1037 0
-1012 -1041 0
-1033 -1037 0
-1033 -1041 0
-1037 -1041 0
-932 936 979 1009 1013 1034 1038 1042 0
-936 932 0
-979 932 0
-1009 932 0
-1013 932 0
-1034 932 0
-1038 932 0
-1042 932 0
-936 -979 0
-936 -1009 0
-936 -1013 0
-936 -1034 0
-936 -1038 0
-936 -1042 0
-979 -1009 0
-979 -1013 0
-979 -1034 0
-979 -1038 0
-979 -1042 0
-1009 -1013 0
-1009 -1034 0
-1009 -1038 0
-1009 -1042 0
-1013 -1034 0
-1013 -1038 0
-1013 -1042 0
-1034 -1038 0
-1034 -1042 0
-1038 -1042 0
-933 937 980 1010 1014 1035 1039 1043 0
-937 933 0
-980 933 0
-1010 933 0
-1014 933 0
-1035 933 0
-1039 933 0
-1043 933 0
-937 -980 0
-937 -1010 0
-937 -1014 0
-937 -1035 0
-937 -1039 0
-937 -1043 0
-980 -1010 0
-980 -1014 0
-980 -1035 0
-980 -1039 0
-980 -1043 0
-1010 -1014 0
-1010 -1035 0
-1010 -1039 0
-1010 -1043 0
-1014 -1035 0
-1014 -1039 0
-1014 -1043 0
-1035 -1039 0
-1035 -1043 0
-1039 -1043 0
-943 938 981 1011 1015 1036 1040 0
-938 943 0
-981 943 0
-1011 943 0
-1015 943 0
-1036 943 0
-1040 943 0
-938 -981 0
-938 -1011 0
-938 -1015 0
-938 -1036 0
-938 -1040 0
-981 -1011 0
-981 -1015 0
-981 -1036 0
-981 -1040 0
-1011 -1015 0
-1011 -1036 0
-1011 -1040 0
-1015 -1036 0
-1015 -1040 0
-1036 -1040 0
-939 942 982 1012 1016 1037 1041 0
-942 939 0
-982 939 0
-1012 939 0
-1016 939 0
-1037 939 0
-1041 939 0
-942 -982 0
-942 -1012 0
-942 -1016 0
-942 -1037 0
-942 -1041 0
-982 -1012 0
-982 -1016 0
-982 -1037 0
-982 -1041 0
-1012 -1016 0
-1012 -1037 0
-1012 -1041 0
-1016 -1037 0
-1016 -1041 0
-1037 -1041 0
-940 944 983 1013 1017 1038 1042 0
-944 940 0
-983 940 0
-1013 940 0
-1017 940 0
-1038 940 0
-1042 940 0
-944 -983 0
-944 -1013 0
-944 -1017 0
-944 -1038 0
-944 -1042 0
-983 -1013 0
-983 -1017 0
-983 -1038 0
-983 -1042 0
-1013 -1017 0
-1013 -1038 0
-1013 -1042 0
-1017 -1038 0
-1017 -1042 0
-1038 -1042 0
-941 945 984 1014 1018 1039 1043 0
-945 941 0
-984 941 0
-1014 941 0
-1018 941 0
-1039 941 0
-1043 941 0
-945 -984 0
-945 -1014 0
-945 -1018 0
-945 -1039 0
-945 -1043 0
-984 -1014 0
-984 -1018 0
-984 -1039 0
-984 -1043 0
-1014 -1018 0
-1014 -1039 0
-1014 -1043 0
-1018 -1039 0
-1018 -1043 0
-1039 -1043 0
-951 946 985 1015 1040 0
-946 951 0
-985 951 0
-1015 951 0
-1040 951 0
-946 -985 0
-946 -1015 0
-946 -1040 0
-985 -1015 0
-985 -1040 0
-1015 -1040 0
-947 950 986 1016 1041 0
-950 947 0
-986 947 0
-1016 947 0
-1041 947 0
-950 -986 0
-950 -1016 0
-950 -1041 0
-986 -1016 0
-986 -1041 0
-1016 -1041 0
-948 952 987 1017 1042 0
-952 948 0
-987 948 0
-1017 948 0
-1042 948 0
-952 -987 0
-952 -1017 0
-952 -1042 0
-987 -1017 0
-987 -1042 0
-1017 -1042 0
-949 953 988 1018 1043 0
-953 949 0
-988 949 0
-1018 949 0
-1043 949 0
-953 -988 0
-953 -1018 0
-953 -1043 0
-988 -1018 0
-988 -1043 0
-1018 -1043 0
4 0
7 0
65 0
66 0
95 0
100 0
128 0
130 0
895 0
902 0
955 0
961 0
989 0
994 0
1022 0
1023 0
-1044 15 0
-1044 150 0
-1044 164 0
-1044 156 0
-1044 -1 -7 0
-1045 15 0
-1045 151 0
-1045 164 0
-1045 156 0
-1045 -2 -7 0
-1046 15 0
-1046 152 0
-1046 164 0
-1046 156 0
-1046 -3 -7 0
-1047 15 0
-1047 153 0
-1047 164 0
-1047 156 0
-1047 -4 -7 0
-1048 15 0
-1048 154 0
-1048 164 0
-1048 156 0
-1048 -5 -7 0
-1049 15 0
-1049 155 0
-1049 164 0
-1049 156 0
-1049 -6 -7 0
-1050 15 0
-1050 150 0
-1050 164 0
-1050 60 0
-1050 -69 0
-1050 -220 0
-1050 -66 157 0
-1050 -66 -1 -8 0
-1050 -67 158 0
-1050 -67 -1 -9 0
-1050 -68 159 0
-1050 -68 -1 -10 0
-1051 15 0
-1051 151 0
-1051 164 0
-1051 61 0
-1051 -69 0
-1051 -220 0
-1051 -66 157 0
-1051 -66 -2 -8 0
-1051 -67 158 0
-1051 -67 -2 -9 0
-1051 -68 159 0
-1051 -68 -2 -10 0
-1052 15 0
-1052 152 0
-1052 164 0
-1052 62 0
-1052 -69 0
-1052 -220 0
-1052 -66 157 0
-1052 -66 -3 -8 0
-1052 -67 158 0
-1052 -67 -3 -9 0
-1052 -68 159 0
-1052 -68 -3 -10 0
-1053 15 0
-1053 153 0
-1053 164 0
-1053 63 0
-1053 -69 0
-1053 -220 0
-1053 -66 157 0
-1053 -66 -4 -8 0
-1053 -67 158 0
-1053 -67 -4 -9 0
-1053 -68 159 0
-1053 -68 -4 -10 0
-1054 15 0
-1054 154 0
-1054 164 0
-1054 64 0
-1054 -69 0
-1054 -220 0
-1054 -66 157 0
-1054 -66 -5 -8 0
-1054 -67 158 0
-1054 -67 -5 -9 0
-1054 -68 159 0
-1054 -68 -5 -10 0
-1055 15 0
-1055 155 0
-1055 164 0
-1055 65 0
-1055 -69 0
-1055 -220 0
-1055 -66 157 0
-1055 -66 -6 -8 0
-1055 -67 158 0
-1055 -67 -6 -9 0
-1055 -68 159 0
-1055 -68 -6 -10 0
-1056 15 0
-1056 150 0
-1056 164 0
-1056 95 0
-1056 -103 0
-1056 -254 0
-1056 -100 157 0
-1056 -100 -1 -8 0
-1056 -101 158 0
-1056 -101 -1 -9 0
-1056 -102 159 0
-1056 -102 -1 -10 0
-1057 15 0
-1057 151 0
-1057 164 0
-1057 95 96 0
-1057 -103 0
-1057 -254 0
-1057 -100 157 0
-1057 -100 -2 -8 0
-1057 -101 158 0
-1057 -101 -2 -9 0
-1057 -102 159 0
-1057 -102 -2 -10 0
-1058 15 0
-1058 152 0
-1058 164 0
-1058 96 97 0
-1058 -103 0
-1058 -254 0
-1058 -100 157 0
-1058 -100 -3 -8 0
-1058 -101 158 0
-1058 -101 -3 -9 0
-1058 -102 159 0
-1058 -102 -3 -10 0
-1059 15 0
-1059 153 0
-1059 164 0
-1059 97 98 0
-1059 -103 0
-1059 -254 0
-1059 -100 157 0
-1059 -100 -4 -8 0
-1059 -101 158 0
-1059 -101 -4 -9 0
-1059 -102 159 0
-1059 -102 -4 -10 0
-1060 15 0
-1060 154 0
-1060 164 0
-1060 98 99 0
-1060 -103 0
-1060 -254 0
-1060 -100 157 0
-1060 -100 -5 -8 0
-1060 -101 158 0
-1060 -101 -5 -9 0
-1060 -102 159 0
-1060 -102 -5 -10 0
-1061 15 0
-1061 155 0
-1061 164 0
-1061 99 0
-1061 -103 0
-1061 -254 0
-1061 -100 157 0
-1061 -100 -6 -8 0
-1061 -101 158 0
-1061 -101 -6 -9 0
-1061 -102 159 0
-1061 -102 -6 -10 0
-1062 15 0
-1062 150 0
-1062 164 0
-1062 125 0
-1062 -132 0
-1062 -283 0
-1062 -129 157 0
-1062 -129 -1 -8 0
-1062 -130 158 0
-1062 -130 -1 -9 0
-1062 -131 159 0
-1062 -131 -1 -10 0
-1063 15 0
-1063 151 0
-1063 164 0
-1063 125 126 0
-1063 -132 0
-1063 -283 0
-1063 -129 157 0
-1063 -129 -2 -8 0
-1063 -130 158 0
-1063 -130 -2 -9 0
-1063 -131 159 0
-1063 -131 -2 -10 0
-1064 15 0
-1064 152 0
-1064 164 0
-1064 125 126 127 0
-1064 -132 0
-1064 -283 0
-1064 -129 157 0
-1064 -129 -3 -8 0
-1064 -130 158 0
-1064 -130 -3 -9 0
-1064 -131 159 0
-1064 -131 -3 -10 0
-1065 15 0
-1065 153 0
-1065 164 0
-1065 126 127 128 0
-1065 -132 0
-1065 -283 0
-1065 -129 157 0
-1065 -129 -4 -8 0
-1065 -130 158 0
-1065 -130 -4 -9 0
-1065 -131 159 0
-1065 -131 -4 -10 0
-1066 15 0
-1066 154 0
-1066 164 0
-1066 127 128 0
-1066 -132 0
-1066 -283 0
-1066 -129 157 0
-1066 -129 -5 -8 0
-1066 -130 158 0
-1066 -130 -5 -9 0
-1066 -131 159 0
-1066 -131 -5 -10 0
-1067 15 0
-1067 155 0
-1067 164 0
-1067 128 0
-1067 -132 0
-1067 -283 0
-1067 -129 157 0
-1067 -129 -6 -8 0
-1067 -130 158 0
-1067 -130 -6 -9 0
-1067 -131 159 0
-1067 -131 -6 -10 0
-1068 71 0
-1068 209 0
-1068 220 0
-1068 215 0
-1068 -60 -66 0
-1069 71 0
-1069 210 0
-1069 220 0
-1069 215 0
-1069 -61 -66 0
-1070 71 0
-1070 211 0
-1070 220 0
-1070 215 0
-1070 -62 -66 0
-1071 71 0
-1071 212 0
-1071 220 0
-1071 215 0
-1071 -63 -66 0
-1072 71 0
-1072 213 0
-1072 220 0
-1072 215 0
-1072 -64 -66 0
-1073 71 0
-1073 214 0
-1073 220 0
-1073 215 0
-1073 -65 -66 0
-1074 71 0
-1074 209 0
-1074 220 0
-1074 1 0
-1074 -10 0
-1074 -164 0
-1074 -7 216 0
-1074 -7 -60 -67 0
-1074 -8 217 0
-1074 -8 -60 -68 0
-1074 -9 218 0
-1074 -9 -60 -69 0
-1075 71 0
-1075 210 0
-1075 220 0
-1075 2 0
-1075 -10 0
-1075 -164 0
-1075 -7 216 0
-1075 -7 -61 -67 0
-1075 -8 217 0
-1075 -8 -61 -68 0
-1075 -9 218 0
-1075 -9 -61 -69 0
-1076 71 0
-1076 211 0
-1076 220 0
-1076 3 0
-1076 -10 0
-1076 -164 0
-1076 -7 216 0
-1076 -7 -62 -67 0
-1076 -8 217 0
-1076 -8 -62 -68 0
-1076 -9 218 0
-1076 -9 -62 -69 0
-1077 71 0
-1077 212 0
-1077 220 0
-1077 4 0
-1077 -10 0
-1077 -164 0
-1077 -7 216 0
-1077 -7 -63 -67 0
-1077 -8 217 0
-1077 -8 -63 -68 0
-1077 -9 218 0
-1077 -9 -63 -69 0
-1078 71 0
-1078 213 0
-1078 220 0
-1078 5 0
-1078 -10 0
-1078 -164 0
-1078 -7 216 0
-1078 -7 -64 -67 0
-1078 -8 217 0
-1078 -8 -64 -68 0
-1078 -9 218 0
-1078 -9 -64 -69 0
-1079 71 0
-1079 214 0
-1079 220 0
-1079 6 0
-1079 -10 0
-1079 -164 0
-1079 -7 216 0
-1079 -7 -65 -67 0
-1079 -8 217 0
-1079 -8 -65 -68 0
-1079 -9 218 0
-1079 -9 -65 -69 0
-1080 71 0
-1080 209 0
-1080 220 0
-1080 95 0
-1080 -103 0
-1080 -254 0
-1080 -100 216 0
-1080 -100 -60 -67 0
-1080 -101 217 0
-1080 -101 -60 -68 0
-1080 -102 218 0
-1080 -102 -60 -69 0
-1081 71 0
-1081 210 0
-1081 220 0
-1081 95 96 0
-1081 -103 0
-1081 -254 0
-1081 -100 216 0
-1081 -100 -61 -67 0
-1081 -101 217 0
-1081 -101 -61 -68 0
-1081 -102 218 0
-1081 -102 -61 -69 0
-1082 71 0
-1082 211 0
-1082 220 0
-1082 96 97 0
-1082 -103 0
-1082 -254 0
-1082 -100 216 0
-1082 -100 -62 -67 0
-1082 -101 217 0
-1082 -101 -62 -68 0
-1082 -102 218 0
-1082 -102 -62 -69 0
-1083 71 0
-1083 212 0
-1083 220 0
-1083 97 98 0
-1083 -103 0
-1083 -254 0
-1083 -100 216 0
-1083 -100 -63 -67 0
-1083 -101 217 0
-1083 -101 -63 -68 0
-1083 -102 218 0
-1083 -102 -63 -69 0
-1084 71 0
-1084 213 0
-1084 220 0
-1084 98 99 0
-1084 -103 0
-1084 -254 0
-1084 -100 216 0
-1084 -100 -64 -67 0
-1084 -101 217 0
-1084 -101 -64 -68 0
-1084 -102 218 0
-1084 -102 -64 -69 0
-1085 71 0
-1085 214 0
-1085 220 0
-1085 99 0
-1085 -103 0
-1085 -254 0
-1085 -100 216 0
-1085 -100 -65 -67 0
-1085 -101 217 0
-1085 -101 -65 -68 0
-1085 -102 218 0
-1085 -102 -65 -69 0
-1086 71 0
-1086 209 0
-1086 220 0
-1086 125 0
-1086 -132 0
-1086 -283 0
-1086 -129 216 0
-1086 -129 -60 -67 0
-1086 -130 217 0
-1086 -130 -60 -68 0
-1086 -131 218 0
-1086 -131 -60 -69 0
-1087 71 0
-1087 210 0
-1087 220 0
-1087 125 126 0
-1087 -132 0
-1087 -283 0
-1087 -129 216 0
-1087 -129 -61 -67 0
-1087 -130 217 0
-1087 -130 -61 -68 0
-1087 -131 218 0
-1087 -131 -61 -69 0
-1088 71 0
-1088 211 0
-1088 220 0
-1088 125 126 127 0
-1088 -132 0
-1088 -283 0
-1088 -129 216 0
-1088 -129 -62 -67 0
-1088 -130 217 0
-1088 -130 -62 -68 0
-1088 -131 218 0
-1088 -131 -62 -69 0
-1089 71 0
-1089 212 0
-1089 220 0
-1089 126 127 128 0
-1089 -132 0
-1089 -283 0
-1089 -129 216 0
-1089 -129 -63 -67 0
-1089 -130 217 0
-1089 -130 -63 -68 0
-1089 -131 218 0
-1089 -131 -63 -69 0
-1090 71 0
-1090 213 0
-1090 220 0
-1090 127 128 0
-1090 -132 0
-1090 -283 0
-1090 -129 216 0
-1090 -129 -64 -67 0
-1090 -130 217 0
-1090 -130 -64 -68 0
-1090 -131 218 0
-1090 -131 -64 -69 0
-1091 71 0
-1091 214 0
-1091 220 0
-1091 128 0
-1091 -132 0
-1091 -283 0
-1091 -129 216 0
-1091 -129 -65 -67 0
-1091 -130 217 0
-1091 -130 -65 -68 0
-1091 -131 218 0
-1091 -131 -65 -69 0
-1092 105 0
-1092 244 0
-1092 254 0
-1092 249 0
-1092 -95 -100 0
-1093 105 0
-1093 245 0
-1093 254 0
-1093 249 0
-1093 -96 -100 0
-1094 105 0
-1094 246 0
-1094 254 0
-1094 249 0
-1094 -97 -100 0
-1095 105 0
-1095 247 0
-1095 254 0
-1095 249 0
-1095 -98 -100 0
-1096 105 0
-1096 248 0
-1096 254 0
-1096 249 0
-1096 -99 -100 0
-1097 105 0
-1097 244 0
-1097 254 0
-1097 1 2 0
-1097 -10 0
-1097 -164 0
-1097 -7 250 0
-1097 -7 -95 -101 0
-1097 -8 251 0
-1097 -8 -95 -102 0
-1097 -9 252 0
-1097 -9 -95 -103 0
-1098 105 0
-1098 245 0
-1098 254 0
-1098 2 3 0
-1098 -10 0
-1098 -164 0
-1098 -7 250 0
-1098 -7 -96 -101 0
-1098 -8 251 0
-1098 -8 -96 -102 0
-1098 -9 252 0
-1098 -9 -96 -103 0
-1099 105 0
-1099 246 0
-1099 254 0
-1099 3 4 0
-1099 -10 0
-1099 -164 0
-1099 -7 250 0
-1099 -7 -97 -101 0
-1099 -8 251 0
-1099 -8 -97 -102 0
-1099 -9 252 0
-1099 -9 -97 -103 0
-1100 105 0
-1100 247 0
-1100 254 0
-1100 4 5 0
-1100 -10 0
-1100 -164 0
-1100 -7 250 0
-1100 -7 -98 -101 0
-1100 -8 251 0
-1100 -8 -98 -102 0
-1100 -9 252 0
-1100 -9 -98 -103 0
-1101 105 0
-1101 248 0
-1101 254 0
-1101 5 6 0
-1101 -10 0
-1101 -164 0
-1101 -7 250 0
-1101 -7 -99 -101 0
-1101 -8 251 0
-1101 -8 -99 -102 0
-1101 -9 252 0
-1101 -9 -99 -103 0
-1102 105 0
-1102 244 0
-1102 254 0
-1102 60 61 0
-1102 -69 0
-1102 -220 0
-1102 -66 250 0
-1102 -66 -95 -101 0
-1102 -67 251 0
-1102 -67 -95 -102 0
-1102 -68 252 0
-1102 -68 -95 -103 0
-1103 105 0
-1103 245 0
-1103 254 0
-1103 61 62 0
-1103 -69 0
-1103 -220 0
-1103 -66 250 0
-1103 -66 -96 -101 0
-1103 -67 251 0
-1103 -67 -96 -102 0
-1103 -68 252 0
-1103 -68 -96 -103 0
-1104 105 0
-1104 246 0
-1104 254 0
-1104 62 63 0
-1104 -69 0
-1104 -220 0
-1104 -66 250 0
-1104 -66 -97 -101 0
-1104 -67 251 0
-1104 -67 -97 -102 0
-1104 -68 252 0
-1104 -68 -97 -103 0
-1105 105 0
-1105 247 0
-1105 254 0
-1105 63 64 0
-1105 -69 0
-1105 -220 0
-1105 -66 250 0
-1105 -66 -98 -101 0
-1105 -67 251 0
-1105 -67 -98 -102 0
-1105 -68 252 0
-1105 -68 -98 -103 0
-1106 105 0
-1106 248 0
-1106 254 0
-1106 64 65 0
-1106 -69 0
-1106 -220 0
-1106 -66 250 0
-1106 -66 -99 -101 0
-1106 -67 251 0
-1106 -67 -99 -102 0
-1106 -68 252 0
-1106 -68 -99 -103 0
-1107 105 0
-1107 244 0
-1107 254 0
-1107 125 126 0
-1107 -132 0
-1107 -283 0
-1107 -129 250 0
-1107 -129 -95 -101 0
-1107 -130 251 0
-1107 -130 -95 -102 0
-1107 -131 252 0
-1107 -131 -95 -103 0
-1108 105 0
-1108 245 0
-1108 254 0
-1108 125 126 127 0
-1108 -132 0
-1108 -283 0
-1108 -129 250 0
-1108 -129 -96 -101 0
-1108 -130 251 0
-1108 -130 -96 -102 0
-1108 -131 252 0
-1108 -131 -96 -103 0
-1109 105 0
-1109 246 0
-1109 254 0
-1109 125 126 127 128 0
-1109 -132 0
-1109 -283 0
-1109 -129 250 0
-1109 -129 -97 -101 0
-1109 -130 251 0
-1109 -130 -97 -102 0
-1109 -131 252 0
-1109 -131 -97 -103 0
-1110 105 0
-1110 247 0
-1110 254 0
-1110 126 127 128 0
-1110 -132 0
-1110 -283 0
-1110 -129 250 0
-1110 -129 -98 -101 0
-1110 -130 251 0
-1110 -130 -98 -102 0
-1110 -131 252 0
-1110 -131 -98 -103 0
-1111 105 0
-1111 248 0
-1111 254 0
-1111 127 128 0
-1111 -132 0
-1111 -283 0
-1111 -129 250 0
-1111 -129 -99 -101 0
-1111 -130 251 0
-1111 -130 -99 -102 0
-1111 -131 252 0
-1111 -131 -99 -103 0
-1112 134 0
-1112 274 0
-1112 283 0
-1112 278 0
-1112 -125 -129 0
-1113 134 0
-1113 275 0
-1113 283 0
-1113 278 0
-1113 -126 -129 0
-1114 134 0
-1114 276 0
-1114 283 0
-1114 278 0
-1114 -127 -129 0
-1115 134 0
-1115 277 0
-1115 283 0
-1115 278 0
-1115 -128 -129 0
-1116 134 0
-1116 274 0
-1116 283 0
-1116 1 2 3 0
-1116 -10 0
-1116 -164 0
-1116 -7 279 0
-1116 -7 -125 -130 0
-1116 -8 280 0
-1116 -8 -125 -131 0
-1116 -9 281 0
-1116 -9 -125 -132 0
-1117 134 0
-1117 275 0
-1117 283 0
-1117 2 3 4 0
-1117 -10 0
-1117 -164 0
-1117 -7 279 0
-1117 -7 -126 -130 0
-1117 -8 280 0
-1117 -8 -126 -131 0
-1117 -9 281 0
-1117 -9 -126 -132 0
-1118 134 0
-1118 276 0
-1118 283 0
-1118 3 4 5 0
-1118 -10 0
-1118 -164 0
-1118 -7 279 0
-1118 -7 -127 -130 0
-1118 -8 280 0
-1118 -8 -127 -131 0
-1118 -9 281 0
-1118 -9 -127 -132 0
-1119 134 0
-1119 277 0
-1119 283 0
-1119 4 5 6 0
-1119 -10 0
-1119 -164 0
-1119 -7 279 0
-1119 -7 -128 -130 0
-1119 -8 280 0
-1119 -8 -128 -131 0
-1119 -9 281 0
-1119 -9 -128 -132 0
-1120 134 0
-1120 274 0
-1120 283 0
-1120 60 61 62 0
-1120 -69 0
-1120 -220 0
-1120 -66 279 0
-1120 -66 -125 -130 0
-1120 -67 280 0
-1120 -67 -125 -131 0
-1120 -68 281 0
-1120 -68 -125 -132 0
-1121 134 0
-1121 275 0
-1121 283 0
-1121 61 62 63 0
-1121 -69 0
-1121 -220 0
-1121 -66 279 0
-1121 -66 -126 -130 0
-1121 -67 280 0
-1121 -67 -126 -131 0
-1121 -68 281 0
-1121 -68 -126 -132 0
-1122 134 0
-1122 276 0
-1122 283 0
-1122 62 63 64 0
-1122 -69 0
-1122 -220 0
-1122 -66 279 0
-1122 -66 -127 -130 0
-1122 -67 280 0
-1122 -67 -127 -131 0
-1122 -68 281 0
-1122 -68 -127 -132 0
-1123 134 0
-1123 277 0
-1123 283 0
-1123 63 64 65 0
-1123 -69 0
-1123 -220 0
-1123 -66 279 0
-1123 -66 -128 -130 0
-1123 -67 280 0
-1123 -67 -128 -131 0
-1123 -68 281 0
-1123 -68 -128 -132 0
-1124 134 0
-1124 274 0
-1124 283 0
-1124 95 96 97 0
-1124 -103 0
-1124 -254 0
-1124 -100 279 0
-1124 -100 -125 -130 0
-1124 -101 280 0
-1124 -101 -125 -131 0
-1124 -102 281 0
-1124 -102 -125 -132 0
-1125 134 0
-1125 275 0
-1125 283 0
-1125 95 96 97 98 0
-1125 -103 0
-1125 -254 0
-1125 -100 279 0
-1125 -100 -126 -130 0
-1125 -101 280 0
-1125 -101 -126 -131 0
-1125 -102 281 0
-1125 -102 -126 -132 0
-1126 134 0
-1126 276 0
-1126 283 0
-1126 96 97 98 99 0
-1126 -103 0
-1126 -254 0
-1126 -100 279 0
-1126 -100 -127 -130 0
-1126 -101 280 0
-1126 -101 -127 -131 0
-1126 -102 281 0
-1126 -102 -127 -132 0
-1127 134 0
-1127 277 0
-1127 283 0
-1127 97 98 99 0
-1127 -103 0
-1127 -254 0
-1127 -100 279 0
-1127 -100 -128 -130 0
-1127 -101 280 0
-1127 -101 -128 -131 0
-1127 -102 281 0
-1127 -102 -128 -132 0
1044 1045 1046 1047 1048 1049 1050 1051 1052 1053 1054 1055 1056 1057 1058 1059 1060 1061 1062 1063 1064 1065 1066 1067 1068 1069 1070 1071 1072 1073 1074 1075 1076 1077 1078 1079 1080 1081 1082 1083 1084 1085 1086 1087 1088 1089 1090 1091 1092 1093 1094 1095 1096 1097 1098 1099 1100 1101 1102 1103 1104 1105 1106 1107 1108 1109 1110 1111 1112 1113 1114 1115 1116 1117 1118 1119 1120 1121 1122 1123 1124 1125 1126 1127 0
-1044 -1045 0
-1044 -1046 0
-1044 -1047 0
-1044 -1048 0
-1044 -1049 0
-1044 -1050 0
-1044 -1051 0
-1044 -1052 0
-1044 -1053 0
-1044 -1054 0
-1044 -1055 0
-1044 -1056 0
-1044 -1057 0
-1044 -1058 0
-1044 -1059 0
-1044 -1060 0
-1044 -1061 0
-1044 -1062 0
-1044 -1063 0
-1044 -1064 0
-1044 -1065 0
-1044 -1066 0
-1044 -1067 0
-1044 -1068 0
-1044 -1069 0
-1044 -1070 0
-1044 -1071 0
-1044 -1072 0
-1044 -1073 0
-1044 -1074 0
-1044 -1075 0
-1044 -1076 0
-1044 -1077 0
-1044 -1078 0
-1044 -1079 0
-1044 -1080 0
-1044 -1081 0
-1044 -1082 0
-1044 -1083 0
-1044 -1084 0
-1044 -1085 0
-1044 -1086 0
-1044 -1087 0
-1044 -1088 0
-1044 -1089 0
-1044 -1090 0
-1044 -1091 0
-1044 -1092 0
-1044 -1093 0
-1044 -1094 0
-1044 -1095 0
-1044 -1096 0
-1044 -1097 0
-1044 -1098 0
-1044 -1099 0
-1044 -1100 0
-1044 -1101 0
-1044 -1102 0
-1044 -1103 0
-1044 -1104 0
-1044 -1105 0
-1044 -1106 0
-1044 -1107 0
-1044 -1108 0
-1044 -1109 0
-1044 -1110 0
-1044 -1111 0
-1044 -1112 0
-1044 -1113 0
-1044 -1114 0
-1044 -1115 0
-1044 -1116 0
-1044 -1117 0
-1044 -1118 0
-1044 -1119 0
-1044 -1120 0
-1044 -1121 0
-1044 -1122 0
-1044 -1123 0
-1044 -1124 0
-1044 -1125 0
-1044 -1126 0
-1044 -1127 0
-1045 -1046 0
-1045 -1047 0
-1045 -1048 0
-1045 -1049 0
-1045 -1050 0
-1045 -1051 0
-1045 -1052 0
-1045 -1053 0
-1045 -1054 0
-1045 -1055 0
-1045 -1056 0
-1045 -1057 0
-1045 -1058 0
-1045 -1059 0
-1045 -1060 0
-1045 -1061 0
-1045 -1062 0
-1045 -1063 0
-1045 -1064 0
-1045 -1065 0
-1045 -1066 0
-1045 -1067 0
-1045 -1068 0
-1045 -1069 0
-1045 -1070 0
-1045 -1071 0
-1045 -1072 0
-1045 -1073 0
-1045 -1074 0
-1045 -1075 0
-1045 -1076 0
-1045 -1077 0
-1045 -1078 0
-1045 -1079 0
-1045 -1080 0
-1045 -1081 0
-1045 -1082 0
-1045 -1083 0
-1045 -1084 0
-1045 -1085 0
-1045 -1086 0
-1045 -1087 0
-1045 -1088 0
-1045 -1089 0
-1045 -1090 0
-1045 -1091 0
-1045 -1092 0
-1045 -1093 0
-1045 -1094 0
-1045 -1095 0
-1045 -1096 0
-1045 -1097 0
-1045 -1098 0
-1045 -1099 0
-1045 -1100 0
-1045 -1101 0
-1045 -1102 0
-1045 -1103 0
-1045 -1104 0
-1045 -1105 0
-1045 -1106 0
-1045 -1107 0
-1045 -1108 0
-1045 -1109 0
-1045 -1110 0
-1045 -1111 0
-1045 -1112 0
-1045 -1113 0
-1045 -1114 0
-1045 -1115 0
-1045 -1116 0
-1045 -1117 0
-1045 -1118 0
-1045 -1119 0
-1045 -1120 0
-1045 -1121 0
-1045 -1122 0
-1045 -1123 0
-1045 -1124 0
-1045 -1125 0
-1045 -1126 0
-1045 -1127 0
-1046 -1047 0
-1046 -1048 0
-1046 -1049 0
-1046 -1050 0
-1046 -1051 0
-1046 -1052 0
-1046 -1053 0
-1046 -1054 0
-1046 -1055 0
-1046 -1056 0
-1046 -1057 0
-1046 -1058 0
-1046 -1059 0
-1046 -1060 0
-1046 -1061 0
-1046 -1062 0
-1046 -1063 0
-1046 -1064 0
-1046 -1065 0
-1046 -1066 0
-1046 -1067 0
-1046 -1068 0
-1046 -1069 0
-1046 -1070 0
-1046 -1071 0
-1046 -1072 0
-1046 -1073 0
-1046 -1074 0
-1046 -1075 0
-1046 -1076 0
-1046 -1077 0
-1046 -1078 0
-1046 -1079 0
-1046 -1080 0
-1046 -1081 0
-1046 -1082 0
-1046 -1083 0
-1046 -1084 0
-1046 -1085 0
-1046 -1086 0
-1046 -1087 0
-1046 -1088 0
-1046 -1089 0
-1046 -1090 0
-1046 -1091 0
-1046 -1092 0
-1046 -1093 0
-1046 -1094 0
-1046 -1095 0
-1046 -1096 0
-1046 -1097 0
-1046 -1098 0
-1046 -1099 0
-1046 -1100 0
-1046 -1101 0
-1046 -1102 0
-1046 -1103 0
-1046 -1104 0
-1046 -1105 0
-1046 -1106 0
-1046 -1107 0
-1046 -1108 0
-1046 -1109 0
-1046 -1110 0
-1046 -1111 0
-1046 -1112 0
-1046 -1113 0
-1046 -1114 0
-1046 -1115 0
-1046 -1116 0
-1046 -1117 0
-1046 -1118 0
-1046 -1119 0
-1046 -1120 0
-1046 -1121 0
-1046 -1122 0
-1046 -1123 0
-1046 -1124 0
-1046 -1125 0
-1046 -1126 0
-1046 -1127 0
-1047 -1048 0
-1047 -1049 0
-1047 -1050 0
-1047 -1051 0
-1047 -1052 0
-1047 -1053 0
-1047 -1054 0
-1047 -1055 0
-1047 -1056 0
-1047 -1057 0
-1047 -1058 0
-1047 -1059 0
-1047 -1060 0
-1047 -1061 0
-1047 -1062 0
-1047 -1063 0
-1047 -1064 0
-1047 -1065 0
-1047 -1066 0
-1047 -1067 0
-1047 -1068 0
-1047 -1069 0
-1047 -1070 0
-1047 -1071 0
-1047 -1072 0
-1047 -1073 0
-1047 -1074 0
-1047 -1075 0
-1047 -1076 0
-1047 -1077 0
-1047 -1078 0
-1047 -1079 0
-1047 -1080 0
-1047 -1081 0
-1047 -1082 0
-1047 -1083 0
-1047 -1084 0
-1047 -1085 0
-1047 -1086 0
-1047 -1087 0
-1047 -1088 0
-1047 -1089 0
-1047 -1090 0
-1047 -1091 0
-1047 -1092 0
-1047 -1093 0
-1047 -1094 0
-1047 -1095 0
-1047 -1096 0
-1047 -1097 0
-1047 -1098 0
-1047 -1099 0
-1047 -1100 0
-1047 -1101 0
-1047 -1102 0
-1047 -1103 0
-1047 -1104 0
-1047 -1105 0
-1047 -1106 0
-1047 -1107 0
-1047 -1108 0
-1047 -1109 0
-1047 -1110 0
-1047 -1111 0
-1047 -1112 0
-1047 -1113 0
-1047 -1114 0
-1047 -1115 0
-1047 -1116 0
-1047 -1117 0
-1047 -1118 0
-1047 -1119 0
-1047 -1120 0
-1047 -1121 0
-1047 -1122 0
-1047 -1123 0
-1047 -1124 0
-1047 -1125 0
-1047 -1126 0
-1047 -1127 0
-1048 -1049 0
-1048 -1050 0
-1048 -1051 0
-1048 -1052 0
-1048 -1053 0
-1048 -1054 0
-1048 -1055 0
-1048 -1056 0
-1048 -1057 0
-1048 -1058 0
-1048 -1059 0
-1048 -1060 0
-1048 -1061 0
-1048 -1062 0
-1048 -1063 0
-1048 -1064 0
-1048 -1065 0
-1048 -1066 0
-1048 -1067 0
-1048 -1068 0
-1048 -1069 0
-1048 -1070 0
-1048 -1071 0
-1048 -1072 0
-1048 -1073 0
-1048 -1074 0
-1048 -1075 0
-1048 -1076 0
-1048 -1077 0
-1048 -1078 0
-1048 -1079 0
-1048 -1080 0
-1048 -1081 0
-1048 -1082 0
-1048 -1083 0
-1048 -1084 0
-1048 -1085 0
-1048 -1086 0
-1048 -1087 0
-1048 -1088 0
-1048 -1089 0
-1048 -1090 0
-1048 -1091 0
-1048 -1092 0
-1048 -1093 0
-1048 -1094 0
-1048 -1095 0
-1048 -1096 0
-1048 -1097 0
-1048 -1098 0
-1048 -1099 0
-1048 -1100 0
-1048 -1101 0
-1048 -1102 0
-1048 -1103 0
-1048 -1104 0
-1048 -1105 0
-1048 -1106 0
-1048 -1107 0
-1048 -1108 0
-1048 -1109 0
-1048 -1110 0
-1048 -1111 0
-1048 -1112 0
-1048 -1113 0
-1048 -1114 0
-1048 -1115 0
-1048 -1116 0
-1048 -1117 0
-1048 -1118 0
-1048 -1119 0
-1048 -1120 0
-1048 -1121 0
-1048 -1122 0
-1048 -1123 0
-1048 -1124 0
-1048 -1125 0
-1048 -1126 0
-1048 -1127 0
-1049 -1050 0
-1049 -1051 0
-1049 -1052 0
-1049 -1053 0
-1049 -1054 0
-1049 -1055 0
-1049 -1056 0
-1049 -1057 0
-1049 -1058 0
-1049 -1059 0
-1049 -1060 0
-1049 -1061 0
-1049 -1062 0
-1049 -1063 0
-1049 -1064 0
-1049 -1065 0
-1049 -1066 0
-1049 -1067 0
-1049 -1068 0
-1049 -1069 0
-1049 -1070 0
-1049 -1071 0
-1049 -1072 0
-1049 -1073 0
-1049 -1074 0
-1049 -1075 0
-1049 -1076 0
-1049 -1077 0
-1049 -1078 0
-1049 -1079 0
-1049 -1080 0
-1049 -1081 0
-1049 -1082 0
-1049 -1083 0
-1049 -1084 0
-1049 -1085 0
-1049 -1086 0
-1049 -1087 0
-1049 -1088 0
-1049 -1089 0
-1049 -1090 0
-1049 -1091 0
-1049 -1092 0
-1049 -1093 0
-1049 -1094 0
-1049 -1095 0
-1049 -1096 0
-1049 -1097 0
-1049 -1098 0
-1049 -1099 0
-1049 -1100 0
-1049 -1101 0
-1049 -1102 0
-1049 -1103 0
-1049 -1104 0
-1049 -1105 0
-1049 -1106 0
-1049 -1107 0
-1049 -1108 0
-1049 -1109 0
-1049 -1110 0
-1049 -1111 0
-1049 -1112 0
-1049 -1113 0
-1049 -1114 0
-1049 -1115 0
-1049 -1116 0
-1049 -1117 0
-1049 -1118 0
-1049 -1119 0
-1049 -1120 0
-1049 -1121 0
-1049 -1122 0
-1049 -1123 0
-1049 -1124 0
-1049 -1125 0
-1049 -1126 0
-1049 -1127 0
-1050 -1051 0
-1050 -1052 0
-1050 -1053 0
-1050 -1054 0
-1050 -1055 0
-1050 -1056 0
-1050 -1057 0
-1050 -1058 0
-1050 -1059 0
-1050 -1060 0
-1050 -1061 0
-1050 -1062 0
-1050 -1063 0
-1050 -1064 0
-1050 -1065 0
-1050 -1066 0
-1050 -1067 0
-1050 -1068 0
-1050 -1069 0
-1050 -1070 0
-1050 -1071 0
-1050 -1072 0
-1050 -1073 0
-1050 -1074 0
-1050 -1075 0
-1050 -1076 0
-1050 -1077 0
-1050 -1078 0
-1050 -1079 0
-1050 -1080 0
-1050 -1081 0
-1050 -1082 0
-1050 -1083 0
-1050 -1084 0
-1050 -1085 0
-1050 -1086 0
-1050 -1087 0
-1050 -1088 0
-1050 -1089 0
-1050 -1090 0
-1050 -1091 0
-1050 -1092 0
-1050 -1093 0
-1050 -1094 0
-1050 -1095 0
-1050 -1096 0
-1050 -1097 0
-1050 -1098 0
-1050 -1099 0
-1050 -1100 0
-1050 -1101 0
-1050 -1102 0
-1050 -1103 0
-1050 -1104 0
-1050 -1105 0
-1050 -1106 0
-1050 -1107 0
-1050 -1108 0
-1050 -1109 0
-1050 -1110 0
-1050 -1111 0
-1050 -1112 0
-1050 -1113 0
-1050 -1114 0
-1050 -1115 0
-1050 -1116 0
-1050 -1117 0
-1050 -1118 0
-1050 -1119 0
-1050 -1120 0
-1050 -1121 0
-1050 -1122 0
-1050 -1123 0
-1050 -1124 0
-1050 -1125 0
-1050 -1126 0
-1050 -1127 0
-1051 -1052 0
-1051 -1053 0
-1051 -1054 0
-1051 -1055 0
-1051 -1056 0
-1051 -1057 0
-1051 -1058 0
-1051 -1059 0
-1051 -1060 0
-1051 -1061 0
-1051 -1062 0
-1051 -1063 0
-1051 -1064 0
-1051 -1065 0
-1051 -1066 0
-1051 -1067 0
-1051 -1068 0
-1051 -1069 0
-1051 -1070 0
-1051 -1071 0
-1051 -1072 0
-1051 -1073 0
-1051 -1074 0
-1051 -1075 0
-1051 -1076 0
-1051 -1077 0
-1051 -1078 0
-1051 -1079 0
-1051 -1080 0
-1051 -1081 0
-1051 -1082 0
-1051 -1083 0
-1051 -1084 0
-1051 -1085 0
-1051 -1086 0
-1051 -1087 0
-1051 -1088 0
-1051 -1089 0
-1051 -1090 0
-1051 -1091 0
-1051 -1092 0
-1051 -1093 0
-1051 -1094 0
-1051 -1095 0
-1051 -1096 0
-1051 -1097 0
-1051 -1098 0
-1051 -1099 0
-1051 -1100 0
-1051 -1101 0
-1051 -1102 0
-1051 -1103 0
-1051 -1104 0
-1051 -1105 0
-1051 -1106 0
-1051 -1107 0
-1051 -1108 0
-1051 -1109 0
-1051 -1110 0
-1051 -1111 0
-1051 -1112 0
-1051 -1113 0
-1051 -1114 0
-1051 -1115 0
-1051 -1116 0
-1051 -1117 0
-1051 -1118 0
-1051 -1119 0
-1051 -1120 0
-1051 -1121 0
-1051 -1122 0
-1051 -1123 0
-1051 -1124 0
-1051 -1125 0
-1051 -1126 0
-1051 -1127 0
-1052 -1053 0
-1052 -1054 0
-1052 -1055 0
-1052 -1056 0
-1052 -1057 0
-1052 -1058 0
-1052 -1059 0
-1052 -1060 0
-1052 -1061 0
-1052 -1062 0
-1052 -1063 0
-1052 -1064 0
-1052 -1065 0
-1052 -1066 0
-1052 -1067 0
-1052 -1068 0
-1052 -1069 0
-1052 -1070 0
-1052 -1071 0
-1052 -1072 0
-1052 -1073 0
-1052 -1074 0
-1052 -1075 0
-1052 -1076 0
-1052 -1077 0
-1052 -1078 0
-1052 -1079 0
-1052 -1080 0
-1052 -1081 0
-1052 -1082 0
-1052 -1083 0
-1052 -1084 0
-1052 -1085 0
-1052 -1086 0
-1052 -1087 0
-1052 -1088 0
-1052 -1089 0
-1052 -1090 0
-1052 -1091 0
-1052 -1092 0
-1052 -1093 0
-1052 -1094 0
-1052 -1095 0
-1052 -1096 0
-1052 -1097 0
-1052 -1098 0
-1052 -1099 0
-1052 -1100 0
-1052 -1101 0
-1052 -1102 0
-1052 -1103 0
-1052 -1104 0
-1052 -1105 0
-1052 -1106 0
-1052 -1107 0
-1052 -1108 0
-1052 -1109 0
-1052 -1110 0
-1052 -1111 0
-1052 -1112 0
-1052 -1113 0
-1052 -1114 0
-1052 -1115 0
-1052 -1116 0
-1052 -1117 0
-1052 -1118 0
-1052 -1119 0
-1052 -1120 0
-1052 -1121 0
-1052 -1122 0
-1052 -1123 0
-1052 -1124 0
-1052 -1125 0
-1052 -1126 0
-1052 -1127 0
-1053 -1054 0
-1053 -1055 0
-1053 -1056 0
-1053 -1057 0
-1053 -1058 0
-1053 -1059 0
-1053 -1060 0
-1053 -1061 0
-1053 -1062 0
-1053 -1063 0
-1053 -1064 0
-1053 -1065 0
-1053 -1066 0
-1053 -1067 0
-1053 -1068 0
-1053 -1069 0
-1053 -1070 0
-1053 -1071 0
-1053 -1072 0
-1053 -1073 0
-1053 -1074 0
-1053 -1075 0
-1053 -1076 0
-1053 -1077 0
-1053 -1078 0
-1053 -1079 0
-1053 -1080 0
-1053 -1081 0
-1053 -1082 0
-1053 -1083 0
-1053 -1084 0
-1053 -1085 0
-1053 -1086 0
-1053 -1087 0
-1053 -1088 0
-1053 -1089 0
-1053 -1090 0
-1053 -1091 0
-1053 -1092 0
-1053 -1093 0
-1053 -1094 0
-1053 -1095 0
-1053 -1096 0
-1053 -1097 0
-1053 -1098 0
-1053 -1099 0
-1053 -1100 0
-1053 -1101 0
-1053 -1102 0
-1053 -1103 0
-1053 -1104 0
-1053 -1105 0
-1053 -1106 0
-1053 -1107 0
-1053 -1108 0
-1053 -1109 0
-1053 -1110 0
-1053 -1111 0
-1053 -1112 0
-1053 -1113 0
-1053 -1114 0
-1053 -1115 0
-1053 -1116 0
-1053 -1117 0
-1053 -1118 0
-1053 -1119 0
-1053 -1120 0
-1053 -1121 0
-1053 -1122 0
-1053 -1123 0
-1053 -1124 0
-1053 -1125 0
-1053 -1126 0
-1053 -1127 0
-1054 -1055 0
-1054 -1056 0
-1054 -1057 0
-1054 -1058 0
-1054 -1059 0
-1054 -1060 0
-1054 -1061 0
-1054 -1062 0
-1054 -1063 0
-1054 -1064 0
-1054 -1065 0
-1054 -1066 0
-1054 -1067 0
-1054 -1068 0
-1054 -1069 0
-1054 -1070 0
-1054 -1071 0
-1054 -1072 0
-1054 -1073 0
-1054 -1074 0
-1054 -1075 0
-1054 -1076 0
-1054 -1077 0
-1054 -1078 0
-1054 -1079 0
-1054 -1080 0
-1054 -1081 0
-1054 -1082 0
-1054 -1083 0
-1054 -1084 0
-1054 -1085 0
-1054 -1086 0
-1054 -1087 0
-1054 -1088 0
-1054 -1089 0
-1054 -1090 0
-1054 -1091 0
-1054 -1092 0
-1054 -1093 0
-1054 -1094 0
-1054 -1095 0
-1054 -1096 0
-1054 -1097 0
-1054 -1098 0
-1054 -1099 0
-1054 -1100 0
-1054 -1101 0
-1054 -1102 0
-1054 -1103 0
-1054 -1104 0
-1054 -1105 0
-1054 -1106 0
-1054 -1107 0
-1054 -1108 0
-1054 -1109 0
-1054 -1110 0
-1054 -1111 0
-1054 -1112 0
-1054 -1113 0
-1054 -1114 0
-1054 -1115 0
-1054 -1116 0
-1054 -1117 0
-1054 -1118 0
-1054 -1119 0
-1054 -1120 0
-1054 -1121 0
-1054 -1122 0
-1054 -1123 0
-1054 -1124 0
-1054 -1125 0
-1054 -1126 0
-1054 -1127 0
-1055 -1056 0
-1055 -1057 0
-1055 -1058 0
-1055 -1059 0
-1055 -1060 0
-1055 -1061 0
-1055 -1062 0
-1055 -1063 0
-1055 -1064 0
-1055 -1065 0
-1055 -1066 0
-1055 -1067 0
-1055 -1068 0
-1055 -1069 0
-1055 -1070 0
-1055 -1071 0
-1055 -1072 0
-1055 -1073 0
-1055 -1074 0
-1055 -1075 0
-1055 -1076 0
-1055 -1077 0
-1055 -1078 0
-1055 -1079 0
-1055 -1080 0
-1055 -1081 0
-1055 -1082 0
-1055 -1083 0
-1055 -1084 0
-1055 -1085 0
-1055 -1086 0
-1055 -1087 0
-1055 -1088 0
-1055 -1089 0
-1055 -1090 0
-1055 -1091 0
-1055 -1092 0
-1055 -1093 0
-1055 -1094 0
-1055 -1095 0
-1055 -1096 0
-1055 -1097 0
-1055 -1098 0
-1055 -1099 0
-1055 -1100 0
-1055 -1101 0
-1055 -1102 0
-1055 -1103 0
-1055 -1104 0
-1055 -1105 0
-1055 -1106 0
-1055 -1107 0
-1055 -1108 0
-1055 -1109 0
-1055 -1110 0
-1055 -1111 0
-1055 -1112 0
-1055 -1113 0
-1055 -1114 0
-1055 -1115 0
-1055 -1116 0
-1055 -1117 0
-1055 -1118 0
-1055 -1119 0
-1055 -1120 0
-1055 -1121 0
-1055 -1122 0
-1055 -1123 0
-1055 -1124 0
-1055 -1125 0
-1055 -1126 0
-1055 -1127 0
-1056 -1057 0
-1056 -1058 0
-1056 -1059 0
-1056 -1060 0
-1056 -1061 0
-1056 -1062 0
-1056 -1063 0
-1056 -1064 0
-1056 -1065 0
-1056 -1066 0
-1056 -1067 0
-1056 -1068 0
-1056 -1069 0
-1056 -1070 0
-1056 -1071 0
-1056 -1072 0
-1056 -1073 0
-1056 -1074 0
-1056 -1075 0
-1056 -1076 0
-1056 -1077 0
-1056 -1078 0
-1056 -1079 0
-1056 -1080 0
-1056 -1081 0
-1056 -1082 0
-1056 -1083 0
-1056 -1084 0
-1056 -1085 0
-1056 -1086 0
-1056 -1087 0
-1056 -1088 0
-1056 -1089 0
-1056 -1090 0
-1056 -1091 0
-1056 -1092 0
-1056 -1093 0
-1056 -1094 0
-1056 -1095 0
-1056 -1096 0
-1056 -1097 0
-1056 -1098 0
-1056 -1099 0
-1056 -1100 0
-1056 -1101 0
-1056 -1102 0
-1056 -1103 0
-1056 -1104 0
-1056 -1105 0
-1056 -1106 0
-1056 -1107 0
-1056 -1108 0
-1056 -1109 0
-1056 -1110 0
-1056 -1111 0
-1056 -1112 0
-1056 -1113 0
-1056 -1114 0
-1056 -1115 0
-1056 -1116 0
-1056 -1117 0
-1056 -1118 0
-1056 -1119 0
-1056 -1120 0
-1056 -1121 0
-1056 -1122 0
-1056 -1123 0
-1056 -1124 0
-1056 -1125 0
-1056 -1126 0
-1056 -1127 0
-1057 -1058 0
-1057 -1059 0
-1057 -1060 0
-1057 -1061 0
-1057 -1062 0
-1057 -1063 0
-1057 -1064 0
-1057 -1065 0
-1057 -1066 0
-1057 -1067 0
-1057 -1068 0
-1057 -1069 0
-1057 -1070 0
-1057 -1071 0
-1057 -1072 0
-1057 -1073 0
-1057 -1074 0
-1057 -1075 0
-1057 -1076 0
-1057 -1077 0
-1057 -1078 0
-1057 -1079 0
-1057 -1080 0
-1057 -1081 0
-1057 -1082 0
-1057 -1083 0
-1057 -1084 0
-1057 -1085 0
-1057 -1086 0
-1057 -1087 0
-1057 -1088 0
-1057 -1089 0
-1057 -1090 0
-1057 -1091 0
-1057 -1092 0
-1057 -1093 0
-1057 -1094 0
-1057 -1095 0
-1057 -1096 0
-1057 -1097 0
-1057 -1098 0
-1057 -1099 0
-1057 -1100 0
-1057 -1101 0
-1057 -1102 0
-1057 -1103 0
-1057 -1104 0
-1057 -1105 0
-1057 -1106 0
-1057 -1107 0
-1057 -1108 0
-1057 -1109 0
-1057 -1110 0
-1057 -1111 0
-1057 -1112 0
-1057 -1113 0
-1057 -1114 0
-1057 -1115 0
-1057 -1116 0
-1057 -1117 0
-1057 -1118 0
-1057 -1119 0
-1057 -1120 0
-1057 -1121 0
-1057 -1122 0
-1057 -1123 0
-1057 -1124 0
-1057 -1125 0
-1057 -1126 0
-1057 -1127 0
-1058 -1059 0
-1058 -1060 0
-1058 -1061 0
-1058 -1062 0
-1058 -1063 0
-1058 -1064 0
-1058 -1065 0
-1058 -1066 0
-1058 -1067 0
-1058 -1068 0
-1058 -1069 0
-1058 -1070 0
-1058 -1071 0
-1058 -1072 0
-1058 -1073 0
-1058 -1074 0
-1058 -1075 0
-1058 -1076 0
-1058 -1077 0
-1058 -1078 0
-1058 -1079 0
-1058 -1080 0
-1058 -1081 0
-1058 -1082 0
-1058 -1083 0
-1058 -1084 0
-1058 -1085 0
-1058 -1086 0
-1058 -1087 0
-1058 -1088 0
-1058 -1089 0
-1058 -1090 0
-1058 -1091 0
-1058 -1092 0
-1058 -1093 0
-1058 -1094 0
-1058 -1095 0
-1058 -1096 0
-1058 -1097 0
-1058 -1098 0
-1058 -1099 0
-1058 -1100 0
-1058 -1101 0
-1058 -1102 0
-1058 -1103 0
-1058 -1104 0
-1058 -1105 0
-1058 -1106 0
-1058 -1107 0
-1058 -1108 0
-1058 -1109 0
-1058 -1110 0
-1058 -1111 0
-1058 -1112 0
-1058 -1113 0
-1058 -1114 0
-1058 -1115 0
-1058 -1116 0
-1058 -1117 0
-1058 -1118 0
-1058 -1119 0
-1058 -1120 0
-1058 -1121 0
-1058 -1122 0
-1058 -1123 0
-1058 -1124 0
-1058 -1125 0
-1058 -1126 0
-1058 -1127 0
-1059 -1060 0
-1059 -1061 0
-1059 -1062 0
-1059 -1063 0
-1059 -1064 0
-1059 -1065 0
-1059 -1066 0
-1059 -1067 0
-1059 -1068 0
-1059 -1069 0
-1059 -1070 0
-1059 -1071 0
-1059 -1072 0
-1059 -1073 0
-1059 -1074 0
-1059 -1075 0
-1059 -1076 0
-1059 -1077 0
-1059 -1078 0
-1059 -1079 0
-1059 -1080 0
-1059 -1081 0
-1059 -1082 0
-1059 -1083 0
-1059 -1084 0
-1059 -1085 0
-1059 -1086 0
-1059 -1087 0
-1059 -1088 0
-1059 -1089 0
-1059 -1090 0
-1059 -1091 0
-1059 -1092 0
-1059 -1093 0
-1059 -1094 0
-1059 -1095 0
-1059 -1096 0
-1059 -1097 0
-1059 -1098 0
-1059 -1099 0
-1059 -1100 0
-1059 -1101 0
-1059 -1102 0
-1059 -1103 0
-1059 -1104 0
-1059 -1105 0
-1059 -1106 0
-1059 -1107 0
-1059 -1108 0
-1059 -1109 0
-1059 -1110 0
-1059 -1111 0
-1059 -1112 0
-1059 -1113 0
-1059 -1114 0
-1059 -1115 0
-1059 -1116 0
-1059 -1117 0
-1059 -1118 0
-1059 -1119 0
-1059 -1120 0
-1059 -1121 0
-1059 -1122 0
-1059 -1123 0
-1059 -1124 0
-1059 -1125 0
-1059 -1126 0
-1059 -1127 0
-1060 -1061 0
-1060 -1062 0
-1060 -1063 0
-1060 -1064 0
-1060 -1065 0
-1060 -1066 0
-1060 -1067 0
-1060 -1068 0
-1060 -1069 0
-1060 -1070 0
-1060 -1071 0
-1060 -1072 0
-1060 -1073 0
-1060 -1074 0
-1060 -1075 0
-1060 -1076 0
-1060 -1077 0
-1060 -1078 0
-1060 -1079 0
-1060 -1080 0
-1060 -1081 0
-1060 -1082 0
-1060 -1083 0
-1060 -1084 0
-1060 -1085 0
-1060 -1086 0
-1060 -1087 0
-1060 -1088 0
-1060 -1089 0
-1060 -1090 0
-1060 -1091 0
-1060 -1092 0
-1060 -1093 0
-1060 -1094 0
-1060 -1095 0
-1060 -1096 0
-1060 -1097 0
-1060 -1098 0
-1060 -1099 0
-1060 -1100 0
-1060 -1101 0
-1060 -1102 0
-1060 -1103 0
-1060 -1104 0
-1060 -1105 0
-1060 -1106 0
-1060 -1107 0
-1060 -1108 0
-1060 -1109 0
-1060 -1110 0
-1060 -1111 0
-1060 -1112 0
-1060 -1113 0
-1060 -1114 0
-1060 -1115 0
-1060 -1116 0
-1060 -1117 0
-1060 -1118 0
-1060 -1119 0
-1060 -1120 0
-1060 -1121 0
-1060 -1122 0
-1060 -1123 0
-1060 -1124 0
-1060 -1125 0
-1060 -1126 0
-1060 -1127 0
-1061 -1062 0
-1061 -1063 0
-1061 -1064 0
-1061 -1065 0
-1061 -1066 0
-1061 -1067 0
-1061 -1068 0
-1061 -1069 0
-1061 -1070 0
-1061 -1071 0
-1061 -1072 0
-1061 -1073 0
-1061 -1074 0
-1061 -1075 0
-1061 -1076 0
-1061 -1077 0
-1061 -1078 0
-1061 -1079 0
-1061 -1080 0
-1061 -1081 0
-1061 -1082 0
-1061 -1083 0
-1061 -1084 0
-1061 -1085 0
-1061 -1086 0
-1061 -1087 0
-1061 -1088 0
-1061 -1089 0
-1061 -1090 0
-1061 -1091 0
-1061 -1092 0
-1061 -1093 0
-1061 -1094 0
-1061 -1095 0
-1061 -1096 0
-1061 -1097 0
-1061 -1098 0
-1061 -1099 0
-1061 -1100 0
-1061 -1101 0
-1061 -1102 0
-1061 -1103 0
-1061 -1104 0
-1061 -1105 0
-1061 -1106 0
-1061 -1107 0
-1061 -1108 0
-1061 -1109 0
-1061 -1110 0
-1061 -1111 0
-1061 -1112 0
-1061 -1113 0
-1061 -1114 0
-1061 -1115 0
-1061 -1116 0
-1061 -1117 0
-1061 -1118 0
-1061 -1119 0
-1061 -1120 0
-1061 -1121 0
-1061 -1122 0
-1061 -1123 0
-1061 -1124 0
-1061 -1125 0
-1061 -1126 0
-1061 -1127 0
-1062 -1063 0
-1062 -1064 0
-1062 -1065 0
-1062 -1066 0
-1062 -1067 0
-1062 -1068 0
-1062 -1069 0
-1062 -1070 0
-1062 -1071 0
-1062 -1072 0
-1062 -1073 0
-1062 -1074 0
-1062 -1075 0
-1062 -1076 0
-1062 -1077 0
-1062 -1078 0
-1062 -1079 0
-1062 -1080 0
-1062 -1081 0
-1062 -1082 0
-1062 -1083 0
-1062 -1084 0
-1062 -1085 0
-1062 -1086 0
-1062 -1087 0
-1062 -1088 0
-1062 -1089 0
-1062 -1090 0
-1062 -1091 0
-1062 -1092 0
-1062 -1093 0
-1062 -1094 0
-1062 -1095 0
-1062 -1096 0
-1062 -1097 0
-1062 -1098 0
-1062 -1099 0
-1062 -1100 0
-1062 -1101 0
-1062 -1102 0
-1062 -1103 0
-1062 -1104 0
-1062 -1105 0
-1062 -1106 0
-1062 -1107 0
-1062 -1108 0
-1062 -1109 0
-1062 -1110 0
-1062 -1111 0
-1062 -1112 0
-1062 -1113 0
-1062 -1114 0
-1062 -1115 0
-1062 -1116 0
-1062 -1117 0
-1062 -1118 0
-1062 -1119 0
-1062 -1120 0
-1062 -1121 0
-1062 -1122 0
-1062 -1123 0
-1062 -1124 0
-1062 -1125 0
-1062 -1126 0
-1062 -1127 0
-1063 -1064 0
-1063 -1065 0
-1063 -1066 0
-1063 -1067 0
-1063 -1068 0
-1063 -1069 0
-1063 -1070 0
-1063 -1071 0
-1063 -1072 0
-1063 -1073 0
-1063 -1074 0
-1063 -1075 0
-1063 -1076 0
-1063 -1077 0
-1063 -1078 0
-1063 -1079 0
-1063 -1080 0
-1063 -1081 0
-1063 -1082 0
-1063 -1083 0
-1063 -1084 0
-1063 -1085 0
-1063 -1086 0
-1063 -1087 0
-1063 -1088 0
-1063 -1089 0
-1063 -1090 0
-1063 -1091 0
-1063 -1092 0
-1063 -1093 0
-1063 -1094 0
-1063 -1095 0
-1063 -1096 0
-1063 -1097 0
-1063 -1098 0
-1063 -1099 0
-1063 -1100 0
-1063 -1101 0
-1063 -1102 0
-1063 -1103 0
-1063 -1104 0
-1063 -1105 0
-1063 -1106 0
-1063 -1107 0
-1063 -1108 0
-1063 -1109 0
-1063 -1110 0
-1063 -1111 0
-1063 -1112 0
-1063 -1113 0
-1063 -1114 0
-1063 -1115 0
-1063 -1116 0
-1063 -1117 0
-1063 -1118 0
-1063 -1119 0
-1063 -1120 0
-1063 -1121 0
-1063 -1122 0
-1063 -1123 0
-1063 -1124 0
-1063 -1125 0
-1063 -1126 0
-1063 -1127 0
-1064 -1065 0
-1064 -1066 0
-1064 -1067 0
-1064 -1068 0
-1064 -1069 0
-1064 -1070 0
-1064 -1071 0
-1064 -1072 0
-1064 -1073 0
-1064 -1074 0
-1064 -1075 0
-1064 -1076 0
-1064 -1077 0
-1064 -1078 0
-1064 -1079 0
-1064 -1080 0
-1064 -1081 0
-1064 -1082 0
-1064 -1083 0
-1064 -1084 0
-1064 -1085 0
-1064 -1086 0
-1064 -1087 0
-1064 -1088 0
-1064 -1089 0
-1064 -1090 0
-1064 -1091 0
-1064 -1092 0
-1064 -1093 0
-1064 -1094 0
-1064 -1095 0
-1064 -1096 0
-1064 -1097 0
-1064 -1098 0
-1064 -1099 0
-1064 -1100 0
-1064 -1101 0
-1064 -1102 0
-1064 -1103 0
-1064 -1104 0
-1064 -1105 0
-1064 -1106 0
-1064 -1107 0
-1064 -1108 0
-1064 -1109 0
-1064 -1110 0
-1064 -1111 0
-1064 -1112 0
-1064 -1113 0
-1064 -1114 0
-1064 -1115 0
-1064 -1116 0
-1064 -1117 0
-1064 -1118 0
-1064 -1119 0
-1064 -1120 0
-1064 -1121 0
-1064 -1122 0
-1064 -1123 0
-1064 -1124 0
-1064 -1125 0
-1064 -1126 0
-1064 -1127 0
-1065 -1066 0
-1065 -1067 0
-1065 -1068 0
-1065 -1069 0
-1065 -1070 0
-1065 -1071 0
-1065 -1072 0
-1065 -1073 0
-1065 -1074 0
-1065 -1075 0
-1065 -1076 0
-1065 -1077 0
-1065 -1078 0
-1065 -1079 0
-1065 -1080 0
-1065 -1081 0
-1065 -1082 0
-1065 -1083 0
-1065 -1084 0
-1065 -1085 0
-1065 -1086 0
-1065 -1087 0
-1065 -1088 0
-1065 -1089 0
-1065 -1090 0
-1065 -1091 0
-1065 -1092 0
-1065 -1093 0
-1065 -1094 0
-1065 -1095 0
-1065 -1096 0
-1065 -1097 0
-1065 -1098 0
-1065 -1099 0
-1065 -1100 0
-1065 -1101 0
-1065 -1102 0
-1065 -1103 0
-1065 -1104 0
-1065 -1105 0
-1065 -1106 0
-1065 -1107 0
-1065 -1108 0
-1065 -1109 0
-1065 -1110 0
-1065 -1111 0
-1065 -1112 0
-1065 -1113 0
-1065 -1114 0
-1065 -1115 0
-1065 -1116 0
-1065 -1117 0
-1065 -1118 0
-1065 -1119 0
-1065 -1120 0
-1065 -1121 0
-1065 -1122 0
-1065 -1123 0
-1065 -1124 0
-1065 -1125 0
-1065 -1126 0
-1065 -1127 0
-1066 -1067 0
-1066 -1068 0
-1066 -1069 0
-1066 -1070 0
-1066 -1071 0
-1066 -1072 0
-1066 -1073 0
-1066 -1074 0
-1066 -1075 0
-1066 -1076 0
-1066 -1077 0
-1066 -1078 0
-1066 -1079 0
-1066 -1080 0
-1066 -1081 0
-1066 -1082 0
-1066 -1083 0
-1066 -1084 0
-1066 -1085 0
-1066 -1086 0
-1066 -1087 0
-1066 -1088 0
-1066 -1089 0
-1066 -1090 0
-1066 -1091 0
-1066 -1092 0
-1066 -1093 0
-1066 -1094 0
-1066 -1095 0
-1066 -1096 0
-1066 -1097 0
-1066 -1098 0
-1066 -1099 0
-1066 -1100 0
-1066 -1101 0
-1066 -1102 0
-1066 -1103 0
-1066 -1104 0
-1066 -1105 0
-1066 -1106 0
-1066 -1107 0
-1066 -1108 0
-1066 -1109 0
-1066 -1110 0
-1066 -1111 0
-1066 -1112 0
-1066 -1113 0
-1066 -1114 0
-1066 -1115 0
-1066 -1116 0
-1066 -1117 0
-1066 -1118 0
-1066 -1119 0
-1066 -1120 0
-1066 -1121 0
-1066 -1122 0
-1066 -1123 0
-1066 -1124 0
-1066 -1125 0
-1066 -1126 0
-1066 -1127 0
-1067 -1068 0
-1067 -1069 0
-1067 -1070 0
-1067 -1071 0
-1067 -1072 0
-1067 -1073 0
-1067 -1074 0
-1067 -1075 0
-1067 -1076 0
-1067 -1077 0
-1067 -1078 0
-1067 -1079 0
-1067 -1080 0
-1067 -1081 0
-1067 -1082 0
-1067 -1083 0
-1067 -1084 0
-1067 -1085 0
-1067 -1086 0
-1067 -1087 0
-1067 -1088 0
-1067 -1089 0
-1067 -1090 0
-1067 -1091 0
-1067 -1092 0
-1067 -1093 0
-1067 -1094 0
-1067 -1095 0
-1067 -1096 0
-1067 -1097 0
-1067 -1098 0
-1067 -1099 0
-1067 -1100 0
-1067 -1101 0
-1067 -1102 0
-1067 -1103 0
-1067 -1104 0
-1067 -1105 0
-1067 -1106 0
-1067 -1107 0
-1067 -1108 0
-1067 -1109 0
-1067 -1110 0
-1067 -1111 0
-1067 -1112 0
-1067 -1113 0
-1067 -1114 0
-1067 -1115 0
-1067 -1116 0
-1067 -1117 0
-1067 -1118 0
-1067 -1119 0
-1067 -1120 0
-1067 -1121 0
-1067 -1122 0
-1067 -1123 0
-1067 -1124 0
-1067 -1125 0
-1067 -1126 0
-1067 -1127 0
-1068 -1069 0
-1068 -1070 0
-1068 -1071 0
-1068 -1072 0
-1068 -1073 0
-1068 -1074 0
-1068 -1075 0
-1068 -1076 0
-1068 -1077 0
-1068 -1078 0
-1068 -1079 0
-1068 -1080 0
-1068 -1081 0
-1068 -1082 0
-1068 -1083 0
-1068 -1084 0
-1068 -1085 0
-1068 -1086 0
-1068 -1087 0
-1068 -1088 0
-1068 -1089 0
-1068 -1090 0
-1068 -1091 0
-1068 -1092 0
-1068 -1093 0
-1068 -1094 0
-1068 -1095 0
-1068 -1096 0
-1068 -1097 0
-1068 -1098 0
-1068 -1099 0
-1068 -1100 0
-1068 -1101 0
-1068 -1102 0
-1068 -1103 0
-1068 -1104 0
-1068 -1105 0
-1068 -1106 0
-1068 -1107 0
-1068 -1108 0
-1068 -1109 0
-1068 -1110 0
-1068 -1111 0
-1068 -1112 0
-1068 -1113 0
-1068 -1114 0
-1068 -1115 0
-1068 -1116 0
-1068 -1117 0
-1068 -1118 0
-1068 -1119 0
-1068 -1120 0
-1068 -1121 0
-1068 -1122 0
-1068 -1123 0
-1068 -1124 0
-1068 -1125 0
-1068 -1126 0
-1068 -1127 0
-1069 -1070 0
-1069 -1071 0
-1069 -1072 0
-1069 -1073 0
-1069 -1074 0
-1069 -1075 0
-1069 -1076 0
-1069 -1077 0
-1069 -1078 0
-1069 -1079 0
-1069 -1080 0
-1069 -1081 0
-1069 -1082 0
-1069 -1083 0
-1069 -1084 0
-1069 -1085 0
-1069 -1086 0
-1069 -1087 0
-1069 -1088 0
-1069 -1089 0
-1069 -1090 0
-1069 -1091 0
-1069 -1092 0
-1069 -1093 0
-1069 -1094 0
-1069 -1095 0
-1069 -1096 0
-1069 -1097 0
-1069 -1098 0
-1069 -1099 0
-1069 -1100 0
-1069 -1101 0
-1069 -1102 0
-1069 -1103 0
-1069 -1104 0
-1069 -1105 0
-1069 -1106 0
-1069 -1107 0
-1069 -1108 0
-1069 -1109 0
-1069 -1110 0
-1069 -1111 0
-1069 -1112 0
-1069 -1113 0
-1069 -1114 0
-1069 -1115 0
-1069 -1116 0
-1069 -1117 0
-1069 -1118 0
-1069 -1119 0
-1069 -1120 0
-1069 -1121 0
-1069 -1122 0
-1069 -1123 0
-1069 -1124 0
-1069 -1125 0
-1069 -1126 0
-1069 -1127 0
-1070 -1071 0
-1070 -1072 0
-1070 -1073 0
-1070 -1074 0
-1070 -1075 0
-1070 -1076 0
-1070 -1077 0
-1070 -1078 0
-1070 -1079 0
-1070 -1080 0
-1070 -1081 0
-1070 -1082 0
-1070 -1083 0
-1070 -1084 0
-1070 -1085 0
-1070 -1086 0
-1070 -1087 0
-1070 -1088 0
-1070 -1089 0
-1070 -1090 0
-1070 -1091 0
-1070 -1092 0
-1070 -1093 0
-1070 -1094 0
-1070 -1095 0
-1070 -1096 0
-1070 -1097 0
-1070 -1098 0
-1070 -1099 0
-1070 -1100 0
-1070 -1101 0
-1070 -1102 0
-1070 -1103 0
-1070 -1104 0
-1070 -1105 0
-1070 -1106 0
-1070 -1107 0
-1070 -1108 0
-1070 -1109 0
-1070 -1110 0
-1070 -1111 0
-1070 -1112 0
-1070 -1113 0
-1070 -1114 0
-1070 -1115 0
-1070 -1116 0
-1070 -1117 0
-1070 -1118 0
-1070 -1119 0
-1070 -1120 0
-1070 -1121 0
-1070 -1122 0
-1070 -1123 0
-1070 -1124 0
-1070 -1125 0
-1070 -1126 0
-1070 -1127 0
-1071 -1072 0
-1071 -1073 0
-1071 -1074 0
-1071 -1075 0
-1071 -1076 0
-1071 -1077 0
-1071 -1078 0
-1071 -1079 0
-1071 -1080 0
-1071 -1081 0
-1071 -1082 0
-1071 -1083 0
-1071 -1084 0
-1071 -1085 0
-1071 -1086 0
-1071 -1087 0
-1071 -1088 0
-1071 -1089 0
-1071 -1090 0
-1071 -1091 0
-1071 -1092 0
-1071 -1093 0
-1071 -1094 0
-1071 -1095 0
-1071 -1096 0
-1071 -1097 0
-1071 -1098 0
-1071 -1099 0
-1071 -1100 0
-1071 -1101 0
-1071 -1102 0
-1071 -1103 0
-1071 -1104 0
-1071 -1105 0
-1071 -1106 0
-1071 -1107 0
-1071 -1108 0
-1071 -1109 0
-1071 -1110 0
-1071 -1111 0
-1071 -1112 0
-1071 -1113 0
-1071 -1114 0
-1071 -1115 0
-1071 -1116 0
-1071 -1117 0
-1071 -1118 0
-1071 -1119 0
-1071 -1120 0
-1071 -1121 0
-1071 -1122 0
-1071 -1123 0
-1071 -1124 0
-1071 -1125 0
-1071 -1126 0
-1071 -1127 0
-1072 -1073 0
-1072 -1074 0
-1072 -1075 0
-1072 -1076 0
-1072 -1077 0
-1072 -1078 0
-1072 -1079 0
-1072 -1080 0
-1072 -1081 0
-1072 -1082 0
-1072 -1083 0
-1072 -1084 0
-1072 -1085 0
-1072 -1086 0
-1072 -1087 0
-1072 -1088 0
-1072 -1089 0
-1072 -1090 0
-1072 -1091 0
-1072 -1092 0
-1072 -1093 0
-1072 -1094 0
-1072 -1095 0
-1072 -1096 0
-1072 -1097 0
-1072 -1098 0
-1072 -1099 0
-1072 -1100 0
-1072 -1101 0
-1072 -1102 0
-1072 -1103 0
-1072 -1104 0
-1072 -1105 0
-1072 -1106 0
-1072 -1107 0
-1072 -1108 0
-1072 -1109 0
-1072 -1110 0
-1072 -1111 0
-1072 -1112 0
-1072 -1113 0
-1072 -1114 0
-1072 -1115 0
-1072 -1116 0
-1072 -1117 0
-1072 -1118 0
-1072 -1119 0
-1072 -1120 0
-1072 -1121 0
-1072 -1122 0
-1072 -1123 0
-1072 -1124 0
-1072 -1125 0
-1072 -1126 0
-1072 -1127 0
-1073 -1074 0
-1073 -1075 0
-1073 -1076 0
-1073 -1077 0
-1073 -1078 0
-1073 -1079 0
-1073 -1080 0
-1073 -1081 0
-1073 -1082 0
-1073 -1083 0
-1073 -1084 0
-1073 -1085 0
-1073 -1086 0
-1073 -1087 0
-1073 -1088 0
-1073 -1089 0
-1073 -1090 0
-1073 -1091 0
-1073 -1092 0
-1073 -1093 0
-1073 -1094 0
-1073 -1095 0
-1073 -1096 0
-1073 -1097 0
-1073 -1098 0
-1073 -1099 0
-1073 -1100 0
-1073 -1101 0
-1073 -1102 0
-1073 -1103 0
-1073 -1104 0
-1073 -1105 0
-1073 -1106 0
-1073 -1107 0
-1073 -1108 0
-1073 -1109 0
-1073 -1110 0
-1073 -1111 0
-1073 -1112 0
-1073 -1113 0
-1073 -1114 0
-1073 -1115 0
-1073 -1116 0
-1073 -1117 0
-1073 -1118 0
-1073 -1119 0
-1073 -1120 0
-1073 -1121 0
-1073 -1122 0
-1073 -1123 0
-1073 -1124 0
-1073 -1125 0
-1073 -1126 0
-1073 -1127 0
-1074 -1075 0
-1074 -1076 0
-1074 -1077 0
-1074 -1078 0
-1074 -1079 0
-1074 -1080 0
-1074 -1081 0
-1074 -1082 0
-1074 -1083 0
-1074 -1084 0
-1074 -1085 0
-1074 -1086 0
-1074 -1087 0
-1074 -1088 0
-1074 -1089 0
-1074 -1090 0
-1074 -1091 0
-1074 -1092 0
-1074 -1093 0
-1074 -1094 0
-1074 -1095 0
-1074 -1096 0
-1074 -1097 0
-1074 -1098 0
-1074 -1099 0
-1074 -1100 0
-1074 -1101 0
-1074 -1102 0
-1074 -1103 0
-1074 -1104 0
-1074 -1105 0
-1074 -1106 0
-1074 -1107 0
-1074 -1108 0
-1074 -1109 0
-1074 -1110 0
-1074 -1111 0
-1074 -1112 0
-1074 -1113 0
-1074 -1114 0
-1074 -1115 0
-1074 -1116 0
-1074 -1117 0
-1074 -1118 0
-1074 -1119 0
-1074 -1120 0
-1074 -1121 0
-1074 -1122 0
-1074 -1123 0
-1074 -1124 0
-1074 -1125 0
-1074 -1126 0
-1074 -1127 0
-1075 -1076 0
-1075 -1077 0
-1075 -1078 0
-1075 -1079 0
-1075 -1080 0
-1075 -1081 0
-1075 -1082 0
-1075 -1083 0
-1075 -1084 0
-1075 -1085 0
-1075 -1086 0
-1075 -1087 0
-1075 -1088 0
-1075 -1089 0
-1075 -1090 0
-1075 -1091 0
-1075 -1092 0
-1075 -1093 0
-1075 -1094 0
-1075 -1095 0
-1075 -1096 0
-1075 -1097 0
-1075 -1098 0
-1075 -1099 0
-1075 -1100 0
-1075 -1101 0
-1075 -1102 0
-1075 -1103 0
-1075 -1104 0
-1075 -1105 0
-1075 -1106 0
-1075 -1107 0
-1075 -1108 0
-1075 -1109 0
-1075 -1110 0
-1075 -1111 0
-1075 -1112 0
-1075 -1113 0
-1075 -1114 0
-1075 -1115 0
-1075 -1116 0
-1075 -1117 0
-1075 -1118 0
-1075 -1119 0
-1075 -1120 0
-1075 -1121 0
-1075 -1122 0
-1075 -1123 0
-1075 -1124 0
-1075 -1125 0
-1075 -1126 0
-1075 -1127 0
-1076 -1077 0
-1076 -1078 0
-1076 -1079 0
-1076 -1080 0
-1076 -1081 0
-1076 -1082 0
-1076 -1083 0
-1076 -1084 0
-1076 -1085 0
-1076 -1086 0
-1076 -1087 0
-1076 -1088 0
-1076 -1089 0
-1076 -1090 0
-1076 -1091 0
-1076 -1092 0
-1076 -1093 0
-1076 -1094 0
-1076 -1095 0
-1076 -1096 0
-1076 -1097 0
-1076 -1098 0
-1076 -1099 0
-1076 -1100 0
-1076 -1101 0
-1076 -1102 0
-1076 -1103 0
-1076 -1104 0
-1076 -1105 0
-1076 -1106 0
-1076 -1107 0
-1076 -1108 0
-1076 -1109 0
-1076 -1110 0
-1076 -1111 0
-1076 -1112 0
-1076 -1113 0
-1076 -1114 0
-1076 -1115 0
-1076 -1116 0
-1076 -1117 0
-1076 -1118 0
-1076 -1119 0
-1076 -1120 0
-1076 -1121 0
-1076 -1122 0
-1076 -1123 0
-1076 -1124 0
-1076 -1125 0
-1076 -1126 0
-1076 -1127 0
-1077 -1078 0
-1077 -1079 0
-1077 -1080 0
-1077 -1081 0
-1077 -1082 0
-1077 -1083 0
-1077 -1084 0
-1077 -1085 0
-1077 -1086 0
-1077 -1087 0
-1077 -1088 0
-1077 -1089 0
-1077 -1090 0
-1077 -1091 0
-1077 -1092 0
-1077 -1093 0
-1077 -1094 0
-1077 -1095 0
-1077 -1096 0
-1077 -1097 0
-1077 -1098 0
-1077 -1099 0
-1077 -1100 0
-1077 -1101 0
-1077 -1102 0
-1077 -1103 0
-1077 -1104 0
-1077 -1105 0
-1077 -1106 0
-1077 -1107 0
-1077 -1108 0
-1077 -1109 0
-1077 -1110 0
-1077 -1111 0
-1077 -1112 0
-1077 -1113 0
-1077 -1114 0
-1077 -1115 0
-1077 -1116 0
-1077 -1117 0
-1077 -1118 0
-1077 -1119 0
-1077 -1120 0
-1077 -1121 0
-1077 -1122 0
-1077 -1123 0
-1077 -1124 0
-1077 -1125 0
-1077 -1126 0
-1077 -1127 0
-1078 -1079 0
-1078 -1080 0
-1078 -1081 0
-1078 -1082 0
-1078 -1083 0
-1078 -1084 0
-1078 -1085 0
-1078 -1086 0
-1078 -1087 0
-1078 -1088 0
-1078 -1089 0
-1078 -1090 0
-1078 -1091 0
-1078 -1092 0
-1078 -1093 0
-1078 -1094 0
-1078 -1095 0
-1078 -1096 0
-1078 -1097 0
-1078 -1098 0
-1078 -1099 0
-1078 -1100 0
-1078 -1101 0
-1078 -1102 0
-1078 -1103 0
-1078 -1104 0
-1078 -1105 0
-1078 -1106 0
-1078 -1107 0
-1078 -1108 0
-1078 -1109 0
-1078 -1110 0
-1078 -1111 0
-1078 -1112 0
-1078 -1113 0
-1078 -1114 0
-1078 -1115 0
-1078 -1116 0
-1078 -1117 0
-1078 -1118 0
-1078 -1119 0
-1078 -1120 0
-1078 -1121 0
-1078 -1122 0
-1078 -1123 0
-1078 -1124 0
-1078 -1125 0
-1078 -1126 0
-1078 -1127 0
-1079 -1080 0
-1079 -1081 0
-1079 -1082 0
-1079 -1083 0
-1079 -1084 0
-1079 -1085 0
-1079 -1086 0
-1079 -1087 0
-1079 -1088 0
-1079 -1089 0
-1079 -1090 0
-1079 -1091 0
-1079 -1092 0
-1079 -1093 0
-1079 -1094 0
-1079 -1095 0
-1079 -1096 0
-1079 -1097 0
-1079 -1098 0
-1079 -1099 0
-1079 -1100 0
-1079 -1101 0
-1079 -1102 0
-1079 -1103 0
-1079 -1104 0
-1079 -1105 0
-1079 -1106 0
-1079 -1107 0
-1079 -1108 0
-1079 -1109 0
-1079 -1110 0
-1079 -1111 0
-1079 -1112 0
-1079 -1113 0
-1079 -1114 0
-1079 -1115 0
-1079 -1116 0
-1079 -1117 0
-1079 -1118 0
-1079 -1119 0
-1079 -1120 0
-1079 -1121 0
-1079 -1122 0
-1079 -1123 0
-1079 -1124 0
-1079 -1125 0
-1079 -1126 0
-1079 -1127 0
-1080 -1081 0
-1080 -1082 0
-1080 -1083 0
-1080 -1084 0
-1080 -1085 0
-1080 -1086 0
-1080 -1087 0
-1080 -1088 0
-1080 -1089 0
-1080 -1090 0
-1080 -1091 0
-1080 -1092 0
-1080 -1093 0
-1080 -1094 0
-1080 -1095 0
-1080 -1096 0
-1080 -1097 0
-1080 -1098 0
-1080 -1099 0
-1080 -1100 0
-1080 -1101 0
-1080 -1102 0
-1080 -1103 0
-1080 -1104 0
-1080 -1105 0
-1080 -1106 0
-1080 -1107 0
-1080 -1108 0
-1080 -1109 0
-1080 -1110 0
-1080 -1111 0
-1080 -1112 0
-1080 -1113 0
-1080 -1114 0
-1080 -1115 0
-1080 -1116 0
-1080 -1117 0
-1080 -1118 0
-1080 -1119 0
-1080 -1120 0
-1080 -1121 0
-1080 -1122 0
-1080 -1123 0
-1080 -1124 0
-1080 -1125 0
-1080 -1126 0
-1080 -1127 0
-1081 -1082 0
-1081 -1083 0
-1081 -1084 0
-1081 -1085 0
-1081 -1086 0
-1081 -1087 0
-1081 -1088 0
-1081 -1089 0
-1081 -1090 0
-1081 -1091 0
-1081 -1092 0
-1081 -1093 0
-1081 -1094 0
-1081 -1095 0
-1081 -1096 0
-1081 -1097 0
-1081 -1098 0
-1081 -1099 0
-1081 -1100 0
-1081 -1101 0
-1081 -1102 0
-1081 -1103 0
-1081 -1104 0
-1081 -1105 0
-1081 -1106 0
-1081 -1107 0
-1081 -1108 0
-1081 -1109 0
-1081 -1110 0
-1081 -1111 0
-1081 -1112 0
-1081 -1113 0
-1081 -1114 0
-1081 -1115 0
-1081 -1116 0
-1081 -1117 0
-1081 -1118 0
-1081 -1119 0
-1081 -1120 0
-1081 -1121 0
-1081 -1122 0
-1081 -1123 0
-1081 -1124 0
-1081 -1125 0
-1081 -1126 0
-1081 -1127 0
-1082 -1083 0
-1082 -1084 0
-1082 -1085 0
-1082 -1086 0
-1082 -1087 0
-1082 -1088 0
-1082 -1089 0
-1082 -1090 0
-1082 -1091 0
-1082 -1092 0
-1082 -1093 0
-1082 -1094 0
-1082 -1095 0
-1082 -1096 0
-1082 -1097 0
-1082 -1098 0
-1082 -1099 0
-1082 -1100 0
-1082 -1101 0
-1082 -1102 0
-1082 -1103 0
-1082 -1104 0
-1082 -1105 0
-1082 -1106 0
-1082 -1107 0
-1082 -1108 0
-1082 -1109 0
-1082 -1110 0
-1082 -1111 0
-1082 -1112 0
-1082 -1113 0
-1082 -1114 0
-1082 -1115 0
-1082 -1116 0
-1082 -1117 0
-1082 -1118 0
-1082 -1119 0
-1082 -1120 0
-1082 -1121 0
-1082 -1122 0
-1082 -1123 0
-1082 -1124 0
-1082 -1125 0
-1082 -1126 0
-1082 -1127 0
-1083 -1084 0
-1083 -1085 0
-1083 -1086 0
-1083 -1087 0
-1083 -1088 0
-1083 -1089 0
-1083 -1090 0
-1083 -1091 0
-1083 -1092 0
-1083 -1093 0
-1083 -1094 0
-1083 -1095 0
-1083 -1096 0
-1083 -1097 0
-1083 -1098 0
-1083 -1099 0
-1083 -1100 0
-1083 -1101 0
-1083 -1102 0
-1083 -1103 0
-1083 -1104 0
-1083 -1105 0
-1083 -1106 0
-1083 -1107 0
-1083 -1108 0
-1083 -1109 0
-1083 -1110 0
-1083 -1111 0
-1083 -1112 0
-1083 -1113 0
-1083 -1114 0
-1083 -1115 0
-1083 -1116 0
-1083 -1117 0
-1083 -1118 0
-1083 -1119 0
-1083 -1120 0
-1083 -1121 0
-1083 -1122 0
-1083 -1123 0
-1083 -1124 0
-1083 -1125 0
-1083 -1126 0
-1083 -1127 0
-1084 -1085 0
-1084 -1086 0
-1084 -1087 0
-1084 -1088 0
-1084 -1089 0
-1084 -1090 0
-1084 -1091 0
-1084 -1092 0
-1084 -1093 0
-1084 -1094 0
-1084 -1095 0
-1084 -1096 0
-1084 -1097 0
-1084 -1098 0
-1084 -1099 0
-1084 -1100 0
-1084 -1101 0
-1084 -1102 0
-1084 -1103 0
-1084 -1104 0
-1084 -1105 0
-1084 -1106 0
-1084 -1107 0
-1084 -1108 0
-1084 -1109 0
-1084 -1110 0
-1084 -1111 0
-1084 -1112 0
-1084 -1113 0
-1084 -1114 0
-1084 -1115 0
-1084 -1116 0
-1084 -1117 0
-1084 -1118 0
-1084 -1119 0
-1084 -1120 0
-1084 -1121 0
-1084 -1122 0
-1084 -1123 0
-1084 -1124 0
-1084 -1125 0
-1084 -1126 0
-1084 -1127 0
-1085 -1086 0
-1085 -1087 0
-1085 -1088 0
-1085 -1089 0
-1085 -1090 0
-1085 -1091 0
-1085 -1092 0
-1085 -1093 0
-1085 -1094 0
-1085 -1095 0
-1085 -1096 0
-1085 -1097 0
-1085 -1098 0
-1085 -1099 0
-1085 -1100 0
-1085 -1101 0
-1085 -1102 0
-1085 -1103 0
-1085 -1104 0
-1085 -1105 0
-1085 -1106 0
-1085 -1107 0
-1085 -1108 0
-1085 -1109 0
-1085 -1110 0
-1085 -1111 0
-1085 -1112 0
-1085 -1113 0
-1085 -1114 0
-1085 -1115 0
-1085 -1116 0
-1085 -1117 0
-1085 -1118 0
-1085 -1119 0
-1085 -1120 0
-1085 -1121 0
-1085 -1122 0
-1085 -1123 0
-1085 -1124 0
-1085 -1125 0
-1085 -1126 0
-1085 -1127 0
-1086 -1087 0
-1086 -1088 0
-1086 -1089 0
-1086 -1090 0
-1086 -1091 0
-1086 -1092 0
-1086 -1093 0
-1086 -1094 0
-1086 -1095 0
-1086 -1096 0
-1086 -1097 0
-1086 -1098 0
-1086 -1099 0
-1086 -1100 0
-1086 -1101 0
-1086 -1102 0
-1086 -1103 0
-1086 -1104 0
-1086 -1105 0
-1086 -1106 0
-1086 -1107 0
-1086 -1108 0
-1086 -1109 0
-1086 -1110 0
-1086 -1111 0
-1086 -1112 0
-1086 -1113 0
-1086 -1114 0
-1086 -1115 0
-1086 -1116 0
-1086 -1117 0
-1086 -1118 0
-1086 -1119 0
-1086 -1120 0
-1086 -1121 0
-1086 -1122 0
-1086 -1123 0
-1086 -1124 0
-1086 -1125 0
-1086 -1126 0
-1086 -1127 0
-1087 -1088 0
-1087 -1089 0
-1087 -1090 0
-1087 -1091 0
-1087 -1092 0
-1087 -1093 0
-1087 -1094 0
-1087 -1095 0
-1087 -1096 0
-1087 -1097 0
-1087 -1098 0
-1087 -1099 0
-1087 -1100 0
-1087 -1101 0
-1087 -1102 0
-1087 -1103 0
-1087 -1104 0
-1087 -1105 0
-1087 -1106 0
-1087 -1107 0
-1087 -1108 0
-1087 -1109 0
-1087 -1110 0
-1087 -1111 0
-1087 -1112 0
-1087 -1113 0
-1087 -1114 0
-1087 -1115 0
-1087 -1116 0
-1087 -1117 0
-1087 -1118 0
-1087 -1119 0
-1087 -1120 0
-1087 -1121 0
-1087 -1122 0
-1087 -1123 0
-1087 -1124 0
-1087 -1125 0
-1087 -1126 0
-1087 -1127 0
-1088 -1089 0
-1088 -1090 0
-1088 -1091 0
-1088 -1092 0
-1088 -1093 0
-1088 -1094 0
-1088 -1095 0
-1088 -1096 0
-1088 -1097 0
-1088 -1098 0
-1088 -1099 0
-1088 -1100 0
-1088 -1101 0
-1088 -1102 0
-1088 -1103 0
-1088 -1104 0
-1088 -1105 0
-1088 -1106 0
-1088 -1107 0
-1088 -1108 0
-1088 -1109 0
-1088 -1110 0
-1088 -1111 0
-1088 -1112 0
-1088 -1113 0
-1088 -1114 0
-1088 -1115 0
-1088 -1116 0
-1088 -1117 0
-1088 -1118 0
-1088 -1119 0
-1088 -1120 0
-1088 -1121 0
-1088 -1122 0
-1088 -1123 0
-1088 -1124 0
-1088 -1125 0
-1088 -1126 0
-1088 -1127 0
-1089 -1090 0
-1089 -1091 0
-1089 -1092 0
-1089 -1093 0
-1089 -1094 0
-1089 -1095 0
-1089 -1096 0
-1089 -1097 0
-1089 -1098 0
-1089 -1099 0
-1089 -1100 0
-1089 -1101 0
-1089 -1102 0
-1089 -1103 0
-1089 -1104 0
-1089 -1105 0
-1089 -1106 0
-1089 -1107 0
-1089 -1108 0
-1089 -1109 0
-1089 -1110 0
-1089 -1111 0
-1089 -1112 0
-1089 -1113 0
-1089 -1114 0
-1089 -1115 0
-1089 -1116 0
-1089 -1117 0
-1089 -1118 0
-1089 -1119 0
-1089 -1120 0
-1089 -1121 0
-1089 -1122 0
-1089 -1123 0
-1089 -1124 0
-1089 -1125 0
-1089 -1126 0
-1089 -1127 0
-1090 -1091 0
-1090 -1092 0
-1090 -1093 0
-1090 -1094 0
-1090 -1095 0
-1090 -1096 0
-1090 -1097 0
-1090 -1098 0
-1090 -1099 0
-1090 -1100 0
-1090 -1101 0
-1090 -1102 0
-1090 -1103 0
-1090 -1104 0
-1090 -1105 0
-1090 -1106 0
-1090 -1107 0
-1090 -1108 0
-1090 -1109 0
-1090 -1110 0
-1090 -1111 0
-1090 -1112 0
-1090 -1113 0
-1090 -1114 0
-1090 -1115 0
-1090 -1116 0
-1090 -1117 0
-1090 -1118 0
-1090 -1119 0
-1090 -1120 0
-1090 -1121 0
-1090 -1122 0
-1090 -1123 0
-1090 -1124 0
-1090 -1125 0
-1090 -1126 0
-1090 -1127 0
-1091 -1092 0
-1091 -1093 0
-1091 -1094 0
-1091 -1095 0
-1091 -1096 0
-1091 -1097 0
-1091 -1098 0
-1091 -1099 0
-1091 -1100 0
-1091 -1101 0
-1091 -1102 0
-1091 -1103 0
-1091 -1104 0
-1091 -1105 0
-1091 -1106 0
-1091 -1107 0
-1091 -1108 0
-1091 -1109 0
-1091 -1110 0
-1091 -1111 0
-1091 -1112 0
-1091 -1113 0
-1091 -1114 0
-1091 -1115 0
-1091 -1116 0
-1091 -1117 0
-1091 -1118 0
-1091 -1119 0
-1091 -1120 0
-1091 -1121 0
-1091 -1122 0
-1091 -1123 0
-1091 -1124 0
-1091 -1125 0
-1091 -1126 0
-1091 -1127 0
-1092 -1093 0
-1092 -1094 0
-1092 -1095 0
-1092 -1096 0
-1092 -1097 0
-1092 -1098 0
-1092 -1099 0
-1092 -1100 0
-1092 -1101 0
-1092 -1102 0
-1092 -1103 0
-1092 -1104 0
-1092 -1105 0
-1092 -1106 0
-1092 -1107 0
-1092 -1108 0
-1092 -1109 0
-1092 -1110 0
-1092 -1111 0
-1092 -1112 0
-1092 -1113 0
-1092 -1114 0
-1092 -1115 0
-1092 -1116 0
-1092 -1117 0
-1092 -1118 0
-1092 -1119 0
-1092 -1120 0
-1092 -1121 0
-1092 -1122 0
-1092 -1123 0
-1092 -1124 0
-1092 -1125 0
-1092 -1126 0
-1092 -1127 0
-1093 -1094 0
-1093 -1095 0
-1093 -1096 0
-1093 -1097 0
-1093 -1098 0
-1093 -1099 0
-1093 -1100 0
-1093 -1101 0
-1093 -1102 0
-1093 -1103 0
-1093 -1104 0
-1093 -1105 0
-1093 -1106 0
-1093 -1107 0
-1093 -1108 0
-1093 -1109 0
-1093 -1110 0
-1093 -1111 0
-1093 -1112 0
-1093 -1113 0
-1093 -1114 0
-1093 -1115 0
-1093 -1116 0
-1093 -1117 0
-1093 -1118 0
-1093 -1119 0
-1093 -1120 0
-1093 -1121 0
-1093 -1122 0
-1093 -1123 0
-1093 -1124 0
-1093 -1125 0
-1093 -1126 0
-1093 -1127 0
-1094 -1095 0
-1094 -1096 0
-1094 -1097 0
-1094 -1098 0
-1094 -1099 0
-1094 -1100 0
-1094 -1101 0
-1094 -1102 0
-1094 -1103 0
-1094 -1104 0
-1094 -1105 0
-1094 -1106 0
-1094 -1107 0
-1094 -1108 0
-1094 -1109 0
-1094 -1110 0
-1094 -1111 0
-1094 -1112 0
-1094 -1113 0
-1094 -1114 0
-1094 -1115 0
-1094 -1116 0
-1094 -1117 0
-1094 -1118 0
-1094 -1119 0
-1094 -1120 0
-1094 -1121 0
-1094 -1122 0
-1094 -1123 0
-1094 -1124 0
-1094 -1125 0
-1094 -1126 0
-1094 -1127 0
-1095 -1096 0
-1095 -1097 0
-1095 -1098 0
-1095 -1099 0
-1095 -1100 0
-1095 -1101 0
-1095 -1102 0
-1095 -1103 0
-1095 -1104 0
-1095 -1105 0
-1095 -1106 0
-1095 -1107 0
-1095 -1108 0
-1095 -1109 0
-1095 -1110 0
-1095 -1111 0
-1095 -1112 0
-1095 -1113 0
-1095 -1114 0
-1095 -1115 0
-1095 -1116 0
-1095 -1117 0
-1095 -1118 0
-1095 -1119 0
-1095 -1120 0
-1095 -1121 0
-1095 -1122 0
-1095 -1123 0
-1095 -1124 0
-1095 -1125 0
-1095 -1126 0
-1095 -1127 0
-1096 -1097 0
-1096 -1098 0
-1096 -1099 0
-1096 -1100 0
-1096 -1101 0
-1096 -1102 0
-1096 -1103 0
-1096 -1104 0
-1096 -1105 0
-1096 -1106 0
-1096 -1107 0
-1096 -1108 0
-1096 -1109 0
-1096 -1110 0
-1096 -1111 0
-1096 -1112 0
-1096 -1113 0
-1096 -1114 0
-1096 -1115 0
-1096 -1116 0
-1096 -1117 0
-1096 -1118 0
-1096 -1119 0
-1096 -1120 0
-1096 -1121 0
-1096 -1122 0
-1096 -1123 0
-1096 -1124 0
-1096 -1125 0
-1096 -1126 0
-1096 -1127 0
-1097 -1098 0
-1097 -1099 0
-1097 -1100 0
-1097 -1101 0
-1097 -1102 0
-1097 -1103 0
-1097 -1104 0
-1097 -1105 0
-1097 -1106 0
-1097 -1107 0
-1097 -1108 0
-1097 -1109 0
-1097 -1110 0
-1097 -1111 0
-1097 -1112 0
-1097 -1113 0
-1097 -1114 0
-1097 -1115 0
-1097 -1116 0
-1097 -1117 0
-1097 -1118 0
-1097 -1119 0
-1097 -1120 0
-1097 -1121 0
-1097 -1122 0
-1097 -1123 0
-1097 -1124 0
-1097 -1125 0
-1097 -1126 0
-1097 -1127 0
-1098 -1099 0
-1098 -1100 0
-1098 -1101 0
-1098 -1102 0
-1098 -1103 0
-1098 -1104 0
-1098 -1105 0
-1098 -1106 0
-1098 -1107 0
-1098 -1108 0
-1098 -1109 0
-1098 -1110 0
-1098 -1111 0
-1098 -1112 0
-1098 -1113 0
-1098 -1114 0
-1098 -1115 0
-1098 -1116 0
-1098 -1117 0
-1098 -1118 0
-1098 -1119 0
-1098 -1120 0
-1098 -1121 0
-1098 -1122 0
-1098 -1123 0
-1098 -1124 0
-1098 -1125 0
-1098 -1126 0
-1098 -1127 0
-1099 -1100 0
-1099 -1101 0
-1099 -1102 0
-1099 -1103 0
-1099 -1104 0
-1099 -1105 0
-1099 -1106 0
-1099 -1107 0
-1099 -1108 0
-1099 -1109 0
-1099 -1110 0
-1099 -1111 0
-1099 -1112 0
-1099 -1113 0
-1099 -1114 0
-1099 -1115 0
-1099 -1116 0
-1099 -1117 0
-1099 -1118 0
-1099 -1119 0
-1099 -1120 0
-1099 -1121 0
-1099 -1122 0
-1099 -1123 0
-1099 -1124 0
-1099 -1125 0
-1099 -1126 0
-1099 -1127 0
-1100 -1101 0
-1100 -1102 0
-1100 -1103 0
-1100 -1104 0
-1100 -1105 0
-1100 -1106 0
-1100 -1107 0
-1100 -1108 0
-1100 -1109 0
-1100 -1110 0
-1100 -1111 0
-1100 -1112 0
-1100 -1113 0
-1100 -1114 0
-1100 -1115 0
-1100 -1116 0
-1100 -1117 0
-1100 -1118 0
-1100 -1119 0
-1100 -1120 0
-1100 -1121 0
-1100 -1122 0
-1100 -1123 0
-1100 -1124 0
-1100 -1125 0
-1100 -1126 0
-1100 -1127 0
-1101 -1102 0
-1101 -1103 0
-1101 -1104 0
-1101 -1105 0
-1101 -1106 0
-1101 -1107 0
-1101 -1108 0
-1101 -1109 0
-1101 -1110 0
-1101 -1111 0
-1101 -1112 0
-1101 -1113 0
-1101 -1114 0
-1101 -1115 0
-1101 -1116 0
-1101 -1117 0
-1101 -1118 0
-1101 -1119 0
-1101 -1120 0
-1101 -1121 0
-1101 -1122 0
-1101 -1123 0
-1101 -1124 0
-1101 -1125 0
-1101 -1126 0
-1101 -1127 0
-1102 -1103 0
-1102 -1104 0
-1102 -1105 0
-1102 -1106 0
-1102 -1107 0
-1102 -1108 0
-1102 -1109 0
-1102 -1110 0
-1102 -1111 0
-1102 -1112 0
-1102 -1113 0
-1102 -1114 0
-1102 -1115 0
-1102 -1116 0
-1102 -1117 0
-1102 -1118 0
-1102 -1119 0
-1102 -1120 0
-1102 -1121 0
-1102 -1122 0
-1102 -1123 0
-1102 -1124 0
-1102 -1125 0
-1102 -1126 0
-1102 -1127 0
-1103 -1104 0
-1103 -1105 0
-1103 -1106 0
-1103 -1107 0
-1103 -1108 0
-1103 -1109 0
-1103 -1110 0
-1103 -1111 0
-1103 -1112 0
-1103 -1113 0
-1103 -1114 0
-1103 -1115 0
-1103 -1116 0
-1103 -1117 0
-1103 -1118 0
-1103 -1119 0
-1103 -1120 0
-1103 -1121 0
-1103 -1122 0
-1103 -1123 0
-1103 -1124 0
-1103 -1125 0
-1103 -1126 0
-1103 -1127 0
-1104 -1105 0
-1104 -1106 0
-1104 -1107 0
-1104 -1108 0
-1104 -1109 0
-1104 -1110 0
-1104 -1111 0
-1104 -1112 0
-1104 -1113 0
-1104 -1114 0
-1104 -1115 0
-1104 -1116 0
-1104 -1117 0
-1104 -1118 0
-1104 -1119 0
-1104 -1120 0
-1104 -1121 0
-1104 -1122 0
-1104 -1123 0
-1104 -1124 0
-1104 -1125 0
-1104 -1126 0
-1104 -1127 0
-1105 -1106 0
-1105 -1107 0
-1105 -1108 0
-1105 -1109 0
-1105 -1110 0
-1105 -1111 0
-1105 -1112 0
-1105 -1113 0
-1105 -1114 0
-1105 -1115 0
-1105 -1116 0
-1105 -1117 0
-1105 -1118 0
-1105 -1119 0
-1105 -1120 0
-1105 -1121 0
-1105 -1122 0
-1105 -1123 0
-1105 -1124 0
-1105 -1125 0
-1105 -1126 0
-1105 -1127 0
-1106 -1107 0
-1106 -1108 0
-1106 -1109 0
-1106 -1110 0
-1106 -1111 0
-1106 -1112 0
-1106 -1113 0
-1106 -1114 0
-1106 -1115 0
-1106 -1116 0
-1106 -1117 0
-1106 -1118 0
-1106 -1119 0
-1106 -1120 0
-1106 -1121 0
-1106 -1122 0
-1106 -1123 0
-1106 -1124 0
-1106 -1125 0
-1106 -1126 0
-1106 -1127 0
-1107 -1108 0
-1107 -1109 0
-1107 -1110 0
-1107 -1111 0
-1107 -1112 0
-1107 -1113 0
-1107 -1114 0
-1107 -1115 0
-1107 -1116 0
-1107 -1117 0
-1107 -1118 0
-1107 -1119 0
-1107 -1120 0
-1107 -1121 0
-1107 -1122 0
-1107 -1123 0
-1107 -1124 0
-1107 -1125 0
-1107 -1126 0
-1107 -1127 0
-1108 -1109 0
-1108 -1110 0
-1108 -1111 0
-1108 -1112 0
-1108 -1113 0
-1108 -1114 0
-1108 -1115 0
-1108 -1116 0
-1108 -1117 0
-1108 -1118 0
-1108 -1119 0
-1108 -1120 0
-1108 -1121 0
-1108 -1122 0
-1108 -1123 0
-1108 -1124 0
-1108 -1125 0
-1108 -1126 0
-1108 -1127 0
-1109 -1110 0
-1109 -1111 0
-1109 -1112 0
-1109 -1113 0
-1109 -1114 0
-1109 -1115 0
-1109 -1116 0
-1109 -1117 0
-1109 -1118 0
-1109 -1119 0
-1109 -1120 0
-1109 -1121 0
-1109 -1122 0
-1109 -1123 0
-1109 -1124 0
-1109 -1125 0
-1109 -1126 0
-1109 -1127 0
-1110 -1111 0
-1110 -1112 0
-1110 -1113 0
-1110 -1114 0
-1110 -1115 0
-1110 -1116 0
-1110 -1117 0
-1110 -1118 0
-1110 -1119 0
-1110 -1120 0
-1110 -1121 0
-1110 -1122 0
-1110 -1123 0
-1110 -1124 0
-1110 -1125 0
-1110 -1126 0
-1110 -1127 0
-1111 -1112 0
-1111 -1113 0
-1111 -1114 0
-1111 -1115 0
-1111 -1116 0
-1111 -1117 0
-1111 -1118 0
-1111 -1119 0
-1111 -1120 0
-1111 -1121 0
-1111 -1122 0
-1111 -1123 0
-1111 -1124 0
-1111 -1125 0
-1111 -1126 0
-1111 -1127 0
-1112 -1113 0
-1112 -1114 0
-1112 -1115 0
-1112 -1116 0
-1112 -1117 0
-1112 -1118 0
-1112 -1119 0
-1112 -1120 0
-1112 -1121 0
-1112 -1122 0
-1112 -1123 0
-1112 -1124 0
-1112 -1125 0
-1112 -1126 0
-1112 -1127 0
-1113 -1114 0
-1113 -1115 0
-1113 -1116 0
-1113 -1117 0
-1113 -1118 0
-1113 -1119 0
-1113 -1120 0
-1113 -1121 0
-1113 -1122 0
-1113 -1123 0
-1113 -1124 0
-1113 -1125 0
-1113 -1126 0
-1113 -1127 0
-1114 -1115 0
-1114 -1116 0
-1114 -1117 0
-1114 -1118 0
-1114 -1119 0
-1114 -1120 0
-1114 -1121 0
-1114 -1122 0
-1114 -1123 0
-1114 -1124 0
-1114 -1125 0
-1114 -1126 0
-1114 -1127 0
-1115 -1116 0
-1115 -1117 0
-1115 -1118 0
-1115 -1119 0
-1115 -1120 0
-1115 -1121 0
-1115 -1122 0
-1115 -1123 0
-1115 -1124 0
-1115 -1125 0
-1115 -1126 0
-1115 -1127 0
-1116 -1117 0
-1116 -1118 0
-1116 -1119 0
-1116 -1120 0
-1116 -1121 0
-1116 -1122 0
-1116 -1123 0
-1116 -1124 0
-1116 -1125 0
-1116 -1126 0
-1116 -1127 0
-1117 -1118 0
-1117 -1119 0
-1117 -1120 0
-1117 -1121 0
-1117 -1122 0
-1117 -1123 0
-1117 -1124 0
-1117 -1125 0
-1117 -1126 0
-1117 -1127 0
-1118 -1119 0
-1118 -1120 0
-1118 -1121 0
-1118 -1122 0
-1118 -1123 0
-1118 -1124 0
-1118 -1125 0
-1118 -1126 0
-1118 -1127 0
-1119 -1120 0
-1119 -1121 0
-1119 -1122 0
-1119 -1123 0
-1119 -1124 0
-1119 -1125 0
-1119 -1126 0
-1119 -1127 0
-1120 -1121 0
-1120 -1122 0
-1120 -1123 0
-1120 -1124 0
-1120 -1125 0
-1120 -1126 0
-1120 -1127 0
-1121 -1122 0
-1121 -1123 0
-1121 -1124 0
-1121 -1125 0
-1121 -1126 0
-1121 -1127 0
-1122 -1123 0
-1122 -1124 0
-1122 -1125 0
-1122 -1126 0
-1122 -1127 0
-1123 -1124 0
-1123 -1125 0
-1123 -1126 0
-1123 -1127 0
-1124 -1125 0
-1124 -1126 0
-1124 -1127 0
-1125 -1126 0
-1125 -1127 0
-1126 -1127 0
-1 150 1044 1045 1046 1047 1048 1049 1050 1051 1052 1053 1054 1055 1056 1057 1058 1059 1060 1061 1062 1063 1064 1065 1066 1067 0
1 -150 1044 1045 1046 1047 1048 1049 1050 1051 1052 1053 1054 1055 1056 1057 1058 1059 1060 1061 1062 1063 1064 1065 1066 1067 0
-2 151 1044 1045 1046 1047 1048 1049 1050 1051 1052 1053 1054 1055 1056 1057 1058 1059 1060 1061 1062 1063 1064 1065 1066 1067 0
2 -151 1044 1045 1046 1047 1048 1049 1050 1051 1052 1053 1054 1055 1056 1057 1058 1059 1060 1061 1062 1063 1064 1065 1066 1067 0
-3 152 1044 1045 1046 1047 1048 1049 1050 1051 1052 1053 1054 1055 1056 1057 1058 1059 1060 1061 1062 1063 1064 1065 1066 1067 0
3 -152 1044 1045 1046 1047 1048 1049 1050 1051 1052 1053 1054 1055 1056 1057 1058 1059 1060 1061 1062 1063 1064 1065 1066 1067 0
-4 153 1044 1045 1046 1047 1048 1049 1050 1051 1052 1053 1054 1055 1056 1057 1058 1059 1060 1061 1062 1063 1064 1065 1066 1067 0
4 -153 1044 1045 1046 1047 1048 1049 1050 1051 1052 1053 1054 1055 1056 1057 1058 1059 1060 1061 1062 1063 1064 1065 1066 1067 0
-5 154 1044 1045 1046 1047 1048 1049 1050 1051 1052 1053 1054 1055 1056 1057 1058 1059 1060 1061 1062 1063 1064 1065 1066 1067 0
5 -154 1044 1045 1046 1047 1048 1049 1050 1051 1052 1053 1054 1055 1056 1057 1058 1059 1060 1061 1062 1063 1064 1065 1066 1067 0
-6 155 1044 1045 1046 1047 1048 1049 1050 1051 1052 1053 1054 1055 1056 1057 1058 1059 1060 1061 1062 1063 1064 1065 1066 1067 0
6 -155 1044 1045 1046 1047 1048 1049 1050 1051 1052 1053 1054 1055 1056 1057 1058 1059 1060 1061 1062 1063 1064 1065 1066 1067 0
-7 156 1044 1045 1046 1047 1048 1049 1050 1051 1052 1053 1054 1055 1056 1057 1058 1059 1060 1061 1062 1063 1064 1065 1066 1067 0
7 -156 1044 1045 1046 1047 1048 1049 1050 1051 1052 1053 1054 1055 1056 1057 1058 1059 1060 1061 1062 1063 1064 1065 1066 1067 0
-8 157 1044 1045 1046 1047 1048 1049 1050 1051 1052 1053 1054 1055 1056 1057 1058 1059 1060 1061 1062 1063 1064 1065 1066 1067 0
8 -157 1044 1045 1046 1047 1048 1049 1050 1051 1052 1053 1054 1055 1056 1057 1058 1059 1060 1061 1062 1063 1064 1065 1066 1067 0
-9 158 1044 1045 1046 1047 1048 1049 1050 1051 1052 1053 1054 1055 1056 1057 1058 1059 1060 1061 1062 1063 1064 1065 1066 1067 0
9 -158 1044 1045 1046 1047 1048 1049 1050 1051 1052 1053 1054 1055 1056 1057 1058 1059 1060 1061 1062 1063 1064 1065 1066 1067 0
-10 159 1044 1045 1046 1047 1048 1049 1050 1051 1052 1053 1054 1055 1056 1057 1058 1059 1060 1061 1062 1063 1064 1065 1066 1067 0
10 -159 1044 1045 1046 1047 1048 1049 1050 1051 1052 1053 1054 1055 1056 1057 1058 1059 1060 1061 1062 1063 1064 1065 1066 1067 0
-60 209 1068 1069 1070 1071 1072 1073 1074 1075 1076 1077 1078 1079 1080 1081 1082 1083 1084 1085 1086 1087 1088 1089 1090 1091 0
60 -209 1068 1069 1070 1071 1072 1073 1074 1075 1076 1077 1078 1079 1080 1081 1082 1083 1084 1085 1086 1087 1088 1089 1090 1091 0
-61 210 1068 1069 1070 1071 1072 1073 1074 1075 1076 1077 1078 1079 1080 1081 1082 1083 1084 1085 1086 1087 1088 1089 1090 1091 0
61 -210 1068 1069 1070 1071 1072 1073 1074 1075 1076 1077 1078 1079 1080 1081 1082 1083 1084 1085 1086 1087 1088 1089 1090 1091 0
-62 211 1068 1069 1070 1071 1072 1073 1074 1075 1076 1077 1078 1079 1080 1081 1082 1083 1084 1085 1086 1087 1088 1089 1090 1091 0
62 -211 1068 1069 1070 1071 1072 1073 1074 1075 1076 1077 1078 1079 1080 1081 1082 1083 1084 1085 1086 1087 1088 1089 1090 1091 0
-63 212 1068 1069 1070 1071 1072 1073 1074 1075 1076 1077 1078 1079 1080 1081 1082 1083 1084 1085 1086 1087 1088 1089 1090 1091 0
63 -212 1068 1069 1070 1071 1072 1073 1074 1075 1076 1077 1078 1079 1080 1081 1082 1083 1084 1085 1086 1087 1088 1089 1090 1091 0
-64 213 1068 1069 1070 1071 1072 1073 1074 1075 1076 1077 1078 1079 1080 1081 1082 1083 1084 1085 1086 1087 1088 1089 1090 1091 0
64 -213 1068 1069 1070 1071 1072 1073 1074 1075 1076 1077 1078 1079 1080 1081 1082 1083 1084 1085 1086 1087 1088 1089 1090 1091 0
-65 214 1068 1069 1070 1071 1072 1073 1074 1075 1076 1077 1078 1079 1080 1081 1082 1083 1084 1085 1086 1087 1088 1089 1090 1091 0
65 -214 1068 1069 1070 1071 1072 1073 1074 1075 1076 1077 1078 1079 1080 1081 1082 1083 1084 1085 1086 1087 1088 1089 1090 1091 0
-66 215 1068 1069 1070 1071 1072 1073 1074 1075 1076 1077 1078 1079 1080 1081 1082 1083 1084 1085 1086 1087 1088 1089 1090 1091 0
66 -215 1068 1069 1070 1071 1072 1073 1074 1075 1076 1077 1078 1079 1080 1081 1082 1083 1084 1085 1086 1087 1088 1089 1090 1091 0
-67 216 1068 1069 1070 1071 1072 1073 1074 1075 1076 1077 1078 1079 1080 1081 1082 1083 1084 1085 1086 1087 1088 1089 1090 1091 0
67 -216 1068 1069 1070 1071 1072 1073 1074 1075 1076 1077 1078 1079 1080 1081 1082 1083 1084 1085 1086 1087 1088 1089 1090 1091 0
-68 217 1068 1069 1070 1071 1072 1073 1074 1075 1076 1077 1078 1079 1080 1081 1082 1083 1084 1085 1086 1087 1088 1089 1090 1091 0
68 -217 1068 1069 1070 1071 1072 1073 1074 1075 1076 1077 1078 1079 1080 1081 1082 1083 1084 1085 1086 1087 1088 1089 1090 1091 0
-69 218 1068 1069 1070 1071 1072 1073 1074 1075 1076 1077 1078 1079 1080 1081 1082 1083 1084 1085 1086 1087 1088 1089 1090 1091 0
69 -218 1068 1069 1070 1071 1072 1073 1074 1075 1076 1077 1078 1079 1080 1081 1082 1083 1084 1085 1086 1087 1088 1089 1090 1091 0
-95 244 1092 1093 1094 1095 1096 1097 1098 1099 1100 1101 1102 1103 1104 1105 1106 1107 1108 1109 1110 1111 0
95 -244 1092 1093 1094 1095 1096 1097 1098 1099 1100 1101 1102 1103 1104 1105 1106 1107 1108 1109 1110 1111 0
-96 245 1092 1093 1094 1095 1096 1097 1098 1099 1100 1101 1102 1103 1104 1105 1106 1107 1108 1109 1110 1111 0
96 -245 1092 1093 1094 1095 1096 1097 1098 1099 1100 1101 1102 1103 1104 1105 1106 1107 1108 1109 1110 1111 0
-97 246 1092 1093 1094 1095 1096 1097 1098 1099 1100 1101 1102 1103 1104 1105 1106 1107 1108 1109 1110 1111 0
97 -246 1092 1093 1094 1095 1096 1097 1098 1099 1100 1101 1102 1103 1104 1105 1106 1107 1108 1109 1110 1111 0
-98 247 1092 1093 1094 1095 1096 1097 1098 1099 1100 1101 1102 1103 1104 1105 1106 1107 1108 1109 1110 1111 0
98 -247 1092 1093 1094 1095 1096 1097 1098 1099 1100 1101 1102 1103 1104 1105 1106 1107 1108 1109 1110 1111 0
-99 248 1092 1093 1094 1095 1096 1097 1098 1099 1100 1101 1102 1103 1104 1105 1106 1107 1108 1109 1110 1111 0
99 -248 1092 1093 1094 1095 1096 1097 1098 1099 1100 1101 1102 1103 1104 1105 1106 1107 1108 1109 1110 1111 0
-100 249 1092 1093 1094 1095 1096 1097 1098 1099 1100 1101 1102 1103 1104 1105 1106 1107 1108 1109 1110 1111 0
100 -249 1092 1093 1094 1095 1096 1097 1098 1099 1100 1101 1102 1103 1104 1105 1106 1107 1108 1109 1110 1111 0
-101 250 1092 1093 1094 1095 1096 1097 1098 1099 1100 1101 1102 1103 1104 1105 1106 1107 1108 1109 1110 1111 0
101 -250 1092 1093 1094 1095 1096 1097 1098 1099 1100 1101 1102 1103 1104 1105 1106 1107 1108 1109 1110 1111 0
-102 251 1092 1093 1094 1095 1096 1097 1098 1099 1100 1101 1102 1103 1104 1105 1106 1107 1108 1109 1110 1111 0
102 -251 1092 1093 1094 1095 1096 1097 1098 1099 1100 1101 1102 1103 1104 1105 1106 1107 1108 1109 1110 1111 0
-103 252 1092 1093 1094 1095 1096 1097 1098 1099 1100 1101 1102 1103 1104 1105 1106 1107 1108 1109 1110 1111 0
103 -252 1092 1093 1094 1095 1096 1097 1098 1099 1100 1101 1102 1103 1104 1105 1106 1107 1108 1109 1110 1111 0
-125 274 1112 1113 1114 1115 1116 1117 1118 1119 1120 1121 1122 1123 1124 1125 1126 1127 0
125 -274 1112 1113 1114 1115 1116 1117 1118 1119 1120 1121 1122 1123 1124 1125 1126 1127 0
-126 275 1112 1113 1114 1115 1116 1117 1118 1119 1120 1121 1122 1123 1124 1125 1126 1127 0
126 -275 1112 1113 1114 1115 1116 1117 1118 1119 1120 1121 1122 1123 1124 1125 1126 1127 0
-127 276 1112 1113 1114 1115 1116 1117 1118 1119 1120 1121 1122 1123 1124 1125 1126 1127 0
127 -276 1112 1113 1114 1115 1116 1117 1118 1119 1120 1121 1122 1123 1124 1125 1126 1127 0
-128 277 1112 1113 1114 1115 1116 1117 1118 1119 1120 1121 1122 1123 1124 1125 1126 1127 0
128 -277 1112 1113 1114 1115 1116 1117 1118 1119 1120 1121 1122 1123 1124 1125 1126 1127 0
-129 278 1112 1113 1114 1115 1116 1117 1118 1119 1120 1121 1122 1123 1124 1125 1126 1127 0
129 -278 1112 1113 1114 1115 1116 1117 1118 1119 1120 1121 1122 1123 1124 1125 1126 1127 0
-130 279 1112 1113 1114 1115 1116 1117 1118 1119 1120 1121 1122 1123 1124 1125 1126 1127 0
130 -279 1112 1113 1114 1115 1116 1117 1118 1119 1120 1121 1122 1123 1124 1125 1126 1127 0
-131 280 1112 1113 1114 1115 1116 1117 1118 1119 1120 1121 1122 1123 1124 1125 1126 1127 0
131 -280 1112 1113 1114 1115 1116 1117 1118 1119 1120 1121 1122 1123 1124 1125 1126 1127 0
-132 281 1112 1113 1114 1115 1116 1117 1118 1119 1120 1121 1122 1123 1124 1125 1126 1127 0
132 -281 1112 1113 1114 1115 1116 1117 1118 1119 1120 1121 1122 1123 1124 1125 1126 1127 0
-1128 164 0
-1128 299 0
-1128 313 0
-1128 305 0
-1128 -150 -156 0
-1129 164 0
-1129 300 0
-1129 313 0
-1129 305 0
-1129 -151 -156 0
-1130 164 0
-1130 301 0
-1130 313 0
-1130 305 0
-1130 -152 -156 0
-1131 164 0
-1131 302 0
-1131 313 0
-1131 305 0
-1131 -153 -156 0
-1132 164 0
-1132 303 0
-1132 313 0
-1132 305 0
-1132 -154 -156 0
-1133 164 0
-1133 304 0
-1133 313 0
-1133 305 0
-1133 -155 -156 0
-1134 164 0
-1134 299 0
-1134 313 0
-1134 209 0
-1134 -218 0
-1134 -369 0
-1134 -215 306 0
-1134 -215 -150 -157 0
-1134 -216 307 0
-1134 -216 -150 -158 0
-1134 -217 308 0
-1134 -217 -150 -159 0
-1135 164 0
-1135 300 0
-1135 313 0
-1135 210 0
-1135 -218 0
-1135 -369 0
-1135 -215 306 0
-1135 -215 -151 -157 0
-1135 -216 307 0
-1135 -216 -151 -158 0
-1135 -217 308 0
-1135 -217 -151 -159 0
-1136 164 0
-1136 301 0
-1136 313 0
-1136 211 0
-1136 -218 0
-1136 -369 0
-1136 -215 306 0
-1136 -215 -152 -157 0
-1136 -216 307 0
-1136 -216 -152 -158 0
-1136 -217 308 0
-1136 -217 -152 -159 0
-1137 164 0
-1137 302 0
-1137 313 0
-1137 212 0
-1137 -218 0
-1137 -369 0
-1137 -215 306 0
-1137 -215 -153 -157 0
-1137 -216 307 0
-1137 -216 -153 -158 0
-1137 -217 308 0
-1137 -217 -153 -159 0
-1138 164 0
-1138 303 0
-1138 313 0
-1138 213 0
-1138 -218 0
-1138 -369 0
-1138 -215 306 0
-1138 -215 -154 -157 0
-1138 -216 307 0
-1138 -216 -154 -158 0
-1138 -217 308 0
-1138 -217 -154 -159 0
-1139 164 0
-1139 304 0
-1139 313 0
-1139 214 0
-1139 -218 0
-1139 -369 0
-1139 -215 306 0
-1139 -215 -155 -157 0
-1139 -216 307 0
-1139 -216 -155 -158 0
-1139 -217 308 0
-1139 -217 -155 -159 0
-1140 164 0
-1140 299 0
-1140 313 0
-1140 244 0
-1140 -252 0
-1140 -403 0
-1140 -249 306 0
-1140 -249 -150 -157 0
-1140 -250 307 0
-1140 -250 -150 -158 0
-1140 -251 308 0
-1140 -251 -150 -159 0
-1141 164 0
-1141 300 0
-1141 313 0
-1141 244 245 0
-1141 -252 0
-1141 -403 0
-1141 -249 306 0
-1141 -249 -151 -157 0
-1141 -250 307 0
-1141 -250 -151 -158 0
-1141 -251 308 0
-1141 -251 -151 -159 0
-1142 164 0
-1142 301 0
-1142 313 0
-1142 245 246 0
-1142 -252 0
-1142 -403 0
-1142 -249 306 0
-1142 -249 -152 -157 0
-1142 -250 307 0
-1142 -250 -152 -158 0
-1142 -251 308 0
-1142 -251 -152 -159 0
-1143 164 0
-1143 302 0
-1143 313 0
-1143 246 247 0
-1143 -252 0
-1143 -403 0
-1143 -249 306 0
-1143 -249 -153 -157 0
-1143 -250 307 0
-1143 -250 -153 -158 0
-1143 -251 308 0
-1143 -251 -153 -159 0
-1144 164 0
-1144 303 0
-1144 313 0
-1144 247 248 0
-1144 -252 0
-1144 -403 0
-1144 -249 306 0
-1144 -249 -154 -157 0
-1144 -250 307 0
-1144 -250 -154 -158 0
-1144 -251 308 0
-1144 -251 -154 -159 0
-1145 164 0
-1145 304 0
-1145 313 0
-1145 248 0
-1145 -252 0
-1145 -403 0
-1145 -249 306 0
-1145 -249 -155 -157 0
-1145 -250 307 0
-1145 -250 -155 -158 0
-1145 -251 308 0
-1145 -251 -155 -159 0
-1146 164 0
-1146 299 0
-1146 313 0
-1146 274 0
-1146 -281 0
-1146 -432 0
-1146 -278 306 0
-1146 -278 -150 -157 0
-1146 -279 307 0
-1146 -279 -150 -158 0
-1146 -280 308 0
-1146 -280 -150 -159 0
-1147 164 0
-1147 300 0
-1147 313 0
-1147 274 275 0
-1147 -281 0
-1147 -432 0
-1147 -278 306 0
-1147 -278 -151 -157 0
-1147 -279 307 0
-1147 -279 -151 -158 0
-1147 -280 308 0
-1147 -280 -151 -159 0
-1148 164 0
-1148 301 0
-1148 313 0
-1148 274 275 276 0
-1148 -281 0
-1148 -432 0
-1148 -278 306 0
-1148 -278 -152 -157 0
-1148 -279 307 0
-1148 -279 -152 -158 0
-1148 -280 308 0
-1148 -280 -152 -159 0
-1149 164 0
-1149 302 0
-1149 313 0
-1149 275 276 277 0
-1149 -281 0
-1149 -432 0
-1149 -278 306 0
-1149 -278 -153 -157 0
-1149 -279 307 0
-1149 -279 -153 -158 0
-1149 -280 308 0
-1149 -280 -153 -159 0
-1150 164 0
-1150 303 0
-1150 313 0
-1150 276 277 0
-1150 -281 0
-1150 -432 0
-1150 -278 306 0
-1150 -278 -154 -157 0
-1150 -279 307 0
-1150 -279 -154 -158 0
-1150 -280 308 0
-1150 -280 -154 -159 0
-1151 164 0
-1151 304 0
-1151 313 0
-1151 277 0
-1151 -281 0
-1151 -432 0
-1151 -278 306 0
-1151 -278 -155 -157 0
-1151 -279 307 0
-1151 -279 -155 -158 0
-1151 -280 308 0
-1151 -280 -155 -159 0
-1152 220 0
-1152 358 0
-1152 369 0
-1152 364 0
-1152 -209 -215 0
-1153 220 0
-1153 359 0
-1153 369 0
-1153 364 0
-1153 -210 -215 0
-1154 220 0
-1154 360 0
-1154 369 0
-1154 364 0
-1154 -211 -215 0
-1155 220 0
-1155 361 0
-1155 369 0
-1155 364 0
-1155 -212 -215 0
-1156 220 0
-1156 362 0
-1156 369 0
-1156 364 0
-1156 -213 -215 0
-1157 220 0
-1157 363 0
-1157 369 0
-1157 364 0
-1157 -214 -215 0
-1158 220 0
-1158 358 0
-1158 369 0
-1158 150 0
-1158 -159 0
-1158 -313 0
-1158 -156 365 0
-1158 -156 -209 -216 0
-1158 -157 366 0
-1158 -157 -209 -217 0
-1158 -158 367 0
-1158 -158 -209 -218 0
-1159 220 0
-1159 359 0
-1159 369 0
-1159 151 0
-1159 -159 0
-1159 -313 0
-1159 -156 365 0
-1159 -156 -210 -216 0
-1159 -157 366 0
-1159 -157 -210 -217 0
-1159 -158 367 0
-1159 -158 -210 -218 0
-1160 220 0
-1160 360 0
-1160 369 0
-1160 152 0
-1160 -159 0
-1160 -313 0
-1160 -156 365 0
-1160 -156 -211 -216 0
-1160 -157 366 0
-1160 -157 -211 -217 0
-1160 -158 367 0
-1160 -158 -211 -218 0
-1161 220 0
-1161 361 0
-1161 369 0
-1161 153 0
-1161 -159 0
-1161 -313 0
-1161 -156 365 0
-1161 -156 -212 -216 0
-1161 -157 366 0
-1161 -157 -212 -217 0
-1161 -158 367 0
-1161 -158 -212 -218 0
-1162 220 0
-1162 362 0
-1162 369 0
-1162 154 0
-1162 -159 0
-1162 -313 0
-1162 -156 365 0
-1162 -156 -213 -216 0
-1162 -157 366 0
-1162 -157 -213 -217 0
-1162 -158 367 0
-1162 -158 -213 -218 0
-1163 220 0
-1163 363 0
-1163 369 0
-1163 155 0
-1163 -159 0
-1163 -313 0
-1163 -156 365 0
-1163 -156 -214 -216 0
-1163 -157 366 0
-1163 -157 -214 -217 0
-1163 -158 367 0
-1163 -158 -214 -218 0
-1164 220 0
-1164 358 0
-1164 369 0
-1164 244 0
-1164 -252 0
-1164 -403 0
-1164 -249 365 0
-1164 -249 -209 -216 0
-1164 -250 366 0
-1164 -250 -209 -217 0
-1164 -251 367 0
-1164 -251 -209 -218 0
-1165 220 0
-1165 359 0
-1165 369 0
-1165 244 245 0
-1165 -252 0
-1165 -403 0
-1165 -249 365 0
-1165 -249 -210 -216 0
-1165 -250 366 0
-1165 -250 -210 -217 0
-1165 -251 367 0
-1165 -251 -210 -218 0
-1166 220 0
-1166 360 0
-1166 369 0
-1166 245 246 0
-1166 -252 0
-1166 -403 0
-1166 -249 365 0
-1166 -249 -211 -216 0
-1166 -250 366 0
-1166 -250 -211 -217 0
-1166 -251 367 0
-1166 -251 -211 -218 0
-1167 220 0
-1167 361 0
-1167 369 0
-1167 246 247 0
-1167 -252 0
-1167 -403 0
-1167 -249 365 0
-1167 -249 -212 -216 0
-1167 -250 366 0
-1167 -250 -212 -217 0
-1167 -251 367 0
-1167 -251 -212 -218 0
-1168 220 0
-1168 362 0
-1168 369 0
-1168 247 248 0
-1168 -252 0
-1168 -403 0
-1168 -249 365 0
-1168 -249 -213 -216 0
-1168 -250 366 0
-1168 -250 -213 -217 0
-1168 -251 367 0
-1168 -251 -213 -218 0
-1169 220 0
-1169 363 0
-1169 369 0
-1169 248 0
-1169 -252 0
-1169 -403 0
-1169 -249 365 0
-1169 -249 -214 -216 0
-1169 -250 366 0
-1169 -250 -214 -217 0
-1169 -251 367 0
-1169 -251 -214 -218 0
-1170 220 0
-1170 358 0
-1170 369 0
-1170 274 0
-1170 -281 0
-1170 -432 0
-1170 -278 365 0
-1170 -278 -209 -216 0
-1170 -279 366 0
-1170 -279 -209 -217 0
-1170 -280 367 0
-1170 -280 -209 -218 0
-1171 220 0
-1171 359 0
-1171 369 0
-1171 274 275 0
-1171 -281 0
-1171 -432 0
-1171 -278 365 0
-1171 -278 -210 -216 0
-1171 -279 366 0
-1171 -279 -210 -217 0
-1171 -280 367 0
-1171 -280 -210 -218 0
-1172 220 0
-1172 360 0
-1172 369 0
-1172 274 275 276 0
-1172 -281 0
-1172 -432 0
-1172 -278 365 0
-1172 -278 -211 -216 0
-1172 -279 366 0
-1172 -279 -211 -217 0
-1172 -280 367 0
-1172 -280 -211 -218 0
-1173 220 0
-1173 361 0
-1173 369 0
-1173 275 276 277 0
-1173 -281 0
-1173 -432 0
-1173 -278 365 0
-1173 -278 -212 -216 0
-1173 -279 366 0
-1173 -279 -212 -217 0
-1173 -280 367 0
-1173 -280 -212 -218 0
-1174 220 0
-1174 362 0
-1174 369 0
-1174 276 277 0
-1174 -281 0
-1174 -432 0
-1174 -278 365 0
-1174 -278 -213 -216 0
-1174 -279 366 0
-1174 -279 -213 -217 0
-1174 -280 367 0
-1174 -280 -213 -218 0
-1175 220 0
-1175 363 0
-1175 369 0
-1175 277 0
-1175 -281 0
-1175 -432 0
-1175 -278 365 0
-1175 -278 -214 -216 0
-1175 -279 366 0
-1175 -279 -214 -217 0
-1175 -280 367 0
-1175 -280 -214 -218 0
-1176 254 0
-1176 393 0
-1176 403 0
-1176 398 0
-1176 -244 -249 0
-1177 254 0
-1177 394 0
-1177 403 0
-1177 398 0
-1177 -245 -249 0
-1178 254 0
-1178 395 0
-1178 403 0
-1178 398 0
-1178 -246 -249 0
-1179 254 0
-1179 396 0
-1179 403 0
-1179 398 0
-1179 -247 -249 0
-1180 254 0
-1180 397 0
-1180 403 0
-1180 398 0
-1180 -248 -249 0
-1181 254 0
-1181 393 0
-1181 403 0
-1181 150 151 0
-1181 -159 0
-1181 -313 0
-1181 -156 399 0
-1181 -156 -244 -250 0
-1181 -157 400 0
-1181 -157 -244 -251 0
-1181 -158 401 0
-1181 -158 -244 -252 0
-1182 254 0
-1182 394 0
-1182 403 0
-1182 151 152 0
-1182 -159 0
-1182 -313 0
-1182 -156 399 0
-1182 -156 -245 -250 0
-1182 -157 400 0
-1182 -157 -245 -251 0
-1182 -158 401 0
-1182 -158 -245 -252 0
-1183 254 0
-1183 395 0
-1183 403 0
-1183 152 153 0
-1183 -159 0
-1183 -313 0
-1183 -156 399 0
-1183 -156 -246 -250 0
-1183 -157 400 0
-1183 -157 -246 -251 0
-1183 -158 401 0
-1183 -158 -246 -252 0
-1184 254 0
-1184 396 0
-1184 403 0
-1184 153 154 0
-1184 -159 0
-1184 -313 0
-1184 -156 399 0
-1184 -156 -247 -250 0
-1184 -157 400 0
-1184 -157 -247 -251 0
-1184 -158 401 0
-1184 -158 -247 -252 0
-1185 254 0
-1185 397 0
-1185 403 0
-1185 154 155 0
-1185 -159 0
-1185 -313 0
-1185 -156 399 0
-1185 -156 -248 -250 0
-1185 -157 400 0
-1185 -157 -248 -251 0
-1185 -158 401 0
-1185 -158 -248 -252 0
-1186 254 0
-1186 393 0
-1186 403 0
-1186 209 210 0
-1186 -218 0
-1186 -369 0
-1186 -215 399 0
-1186 -215 -244 -250 0
-1186 -216 400 0
-1186 -216 -244 -251 0
-1186 -217 401 0
-1186 -217 -244 -252 0
-1187 254 0
-1187 394 0
-1187 403 0
-1187 210 211 0
-1187 -218 0
-1187 -369 0
-1187 -215 399 0
-1187 -215 -245 -250 0
-1187 -216 400 0
-1187 -216 -245 -251 0
-1187 -217 401 0
-1187 -217 -245 -252 0
-1188 254 0
-1188 395 0
-1188 403 0
-1188 211 212 0
-1188 -218 0
-1188 -369 0
-1188 -215 399 0
-1188 -215 -246 -250 0
-1188 -216 400 0
-1188 -216 -246 -251 0
-1188 -217 401 0
-1188 -217 -246 -252 0
-1189 254 0
-1189 396 0
-1189 403 0
-1189 212 213 0
-1189 -218 0
-1189 -369 0
-1189 -215 399 0
-1189 -215 -247 -250 0
-1189 -216 400 0
-1189 -216 -247 -251 0
-1189 -217 401 0
-1189 -217 -247 -252 0
-1190 254 0
-1190 397 0
-1190 403 0
-1190 213 214 0
-1190 -218 0
-1190 -369 0
-1190 -215 399 0
-1190 -215 -248 -250 0
-1190 -216 400 0
-1190 -216 -248 -251 0
-1190 -217 401 0
-1190 -217 -248 -252 0
-1191 254 0
-1191 393 0
-1191 403 0
-1191 274 275 0
-1191 -281 0
-1191 -432 0
-1191 -278 399 0
-1191 -278 -244 -250 0
-1191 -279 400 0
-1191 -279 -244 -251 0
-1191 -280 401 0
-1191 -280 -244 -252 0
-1192 254 0
-1192 394 0
-1192 403 0
-1192 274 275 276 0
-1192 -281 0
-1192 -432 0
-1192 -278 399 0
-1192 -278 -245 -250 0
-1192 -279 400 0
-1192 -279 -245 -251 0
-1192 -280 401 0
-1192 -280 -245 -252 0
-1193 254 0
-1193 395 0
-1193 403 0
-1193 274 275 276 277 0
-1193 -281 0
-1193 -432 0
-1193 -278 399 0
-1193 -278 -246 -250 0
-1193 -279 400 0
-1193 -279 -246 -251 0
-1193 -280 401 0
-1193 -280 -246 -252 0
-1194 254 0
-1194 396 0
-1194 403 0
-1194 275 276 277 0
-1194 -281 0
-1194 -432 0
-1194 -278 399 0
-1194 -278 -247 -250 0
-1194 -279 400 0
-1194 -279 -247 -251 0
-1194 -280 401 0
-1194 -280 -247 -252 0
-1195 254 0
-1195 397 0
-1195 403 0
-1195 276 277 0
-1195 -281 0
-1195 -432 0
-1195 -278 399 0
-1195 -278 -248 -250 0
-1195 -279 400 0
-1195 -279 -248 -251 0
-1195 -280 401 0
-1195 -280 -248 -252 0
-1196 283 0
-1196 423 0
-1196 432 0
-1196 427 0
-1196 -274 -278 0
-1197 283 0
-1197 424 0
-1197 432 0
-1197 427 0
-1197 -275 -278 0
-1198 283 0
-1198 425 0
-1198 432 0
-1198 427 0
-1198 -276 -278 0
-1199 283 0
-1199 426 0
-1199 432 0
-1199 427 0
-1199 -277 -278 0
-1200 283 0
-1200 423 0
-1200 432 0
-1200 150 151 152 0
-1200 -159 0
-1200 -313 0
-1200 -156 428 0
-1200 -156 -274 -279 0
-1200 -157 429 0
-1200 -157 -274 -280 0
-1200 -158 430 0
-1200 -158 -274 -281 0
-1201 283 0
-1201 424 0
-1201 432 0
-1201 151 152 153 0
-1201 -159 0
-1201 -313 0
-1201 -156 428 0
-1201 -156 -275 -279 0
-1201 -157 429 0
-1201 -157 -275 -280 0
-1201 -158 430 0
-1201 -158 -275 -281 0
-1202 283 0
-1202 425 0
-1202 432 0
-1202 152 153 154 0
-1202 -159 0
-1202 -313 0
-1202 -156 428 0
-1202 -156 -276 -279 0
-1202 -157 429 0
-1202 -157 -276 -280 0
-1202 -158 430 0
-1202 -158 -276 -281 0
-1203 283 0
-1203 426 0
-1203 432 0
-1203 153 154 155 0
-1203 -159 0
-1203 -313 0
-1203 -156 428 0
-1203 -156 -277 -279 0
-1203 -157 429 0
-1203 -157 -277 -280 0
-1203 -158 430 0
-1203 -158 -277 -281 0
-1204 283 0
-1204 423 0
-1204 432 0
-1204 209 210 211 0
-1204 -218 0
-1204 -369 0
-1204 -215 428 0
-1204 -215 -274 -279 0
-1204 -216 429 0
-1204 -216 -274 -280 0
-1204 -217 430 0
-1204 -217 -274 -281 0
-1205 283 0
-1205 424 0
-1205 432 0
-1205 210 211 212 0
-1205 -218 0
-1205 -369 0
-1205 -215 428 0
-1205 -215 -275 -279 0
-1205 -216 429 0
-1205 -216 -275 -280 0
-1205 -217 430 0
-1205 -217 -275 -281 0
-1206 283 0
-1206 425 0
-1206 432 0
-1206 211 212 213 0
-1206 -218 0
-1206 -369 0
-1206 -215 428 0
-1206 -215 -276 -279 0
-1206 -216 429 0
-1206 -216 -276 -280 0
-1206 -217 430 0
-1206 -217 -276 -281 0
-1207 283 0
-1207 426 0
-1207 432 0
-1207 212 213 214 0
-1207 -218 0
-1207 -369 0
-1207 -215 428 0
-1207 -215 -277 -279 0
-1207 -216 429 0
-1207 -216 -277 -280 0
-1207 -217 430 0
-1207 -217 -277 -281 0
-1208 283 0
-1208 423 0
-1208 432 0
-1208 244 245 246 0
-1208 -252 0
-1208 -403 0
-1208 -249 428 0
-1208 -249 -274 -279 0
-1208 -250 429 0
-1208 -250 -274 -280 0
-1208 -251 430 0
-1208 -251 -274 -281 0
-1209 283 0
-1209 424 0
-1209 432 0
-1209 244 245 246 247 0
-1209 -252 0
-1209 -403 0
-1209 -249 428 0
-1209 -249 -275 -279 0
-1209 -250 429 0
-1209 -250 -275 -280 0
-1209 -251 430 0
-1209 -251 -275 -281 0
-1210 283 0
-1210 425 0
-1210 432 0
-1210 245 246 247 248 0
-1210 -252 0
-1210 -403 0
-1210 -249 428 0
-1210 -249 -276 -279 0
-1210 -250 429 0
-1210 -250 -276 -280 0
-1210 -251 430 0
-1210 -251 -276 -281 0
-1211 283 0
-1211 426 0
-1211 432 0
-1211 246 247 248 0
-1211 -252 0
-1211 -403 0
-1211 -249 428 0
-1211 -249 -277 -279 0
-1211 -250 429 0
-1211 -250 -277 -280 0
-1211 -251 430 0
-1211 -251 -277 -281 0
1128 1129 1130 1131 1132 1133 1134 1135 1136 1137 1138 1139 1140 1141 1142 1143 1144 1145 1146 1147 1148 1149 1150 1151 1152 1153 1154 1155 1156 1157 1158 1159 1160 1161 1162 1163 1164 1165 1166 1167 1168 1169 1170 1171 1172 1173 1174 1175 1176 1177 1178 1179 1180 1181 1182 1183 1184 1185 1186 1187 1188 1189 1190 1191 1192 1193 1194 1195 1196 1197 1198 1199 1200 1201 1202 1203 1204 1205 1206 1207 1208 1209 1210 1211 0
-1128 -1129 0
-1128 -1130 0
-1128 -1131 0
-1128 -1132 0
-1128 -1133 0
-1128 -1134 0
-1128 -1135 0
-1128 -1136 0
-1128 -1137 0
-1128 -1138 0
-1128 -1139 0
-1128 -1140 0
-1128 -1141 0
-1128 -1142 0
-1128 -1143 0
-1128 -1144 0
-1128 -1145 0
-1128 -1146 0
-1128 -1147 0
-1128 -1148 0
-1128 -1149 0
-1128 -1150 0
-1128 -1151 0
-1128 -1152 0
-1128 -1153 0
-1128 -1154 0
-1128 -1155 0
-1128 -1156 0
-1128 -1157 0
-1128 -1158 0
-1128 -1159 0
-1128 -1160 0
-1128 -1161 0
-1128 -1162 0
-1128 -1163 0
-1128 -1164 0
-1128 -1165 0
-1128 -1166 0
-1128 -1167 0
-1128 -1168 0
-1128 -1169 0
-1128 -1170 0
-1128 -1171 0
-1128 -1172 0
-1128 -1173 0
-1128 -1174 0
-1128 -1175 0
-1128 -1176 0
-1128 -1177 0
-1128 -1178 0
-1128 -1179 0
-1128 -1180 0
-1128 -1181 0
-1128 -1182 0
-1128 -1183 0
-1128 -1184 0
-1128 -1185 0
-1128 -1186 0
-1128 -1187 0
-1128 -1188 0
-1128 -1189 0
-1128 -1190 0
-1128 -1191 0
-1128 -1192 0
-1128 -1193 0
-1128 -1194 0
-1128 -1195 0
-1128 -1196 0
-1128 -1197 0
-1128 -1198 0
-1128 -1199 0
-1128 -1200 0
-1128 -1201 0
-1128 -1202 0
-1128 -1203 0
-1128 -1204 0
-1128 -1205 0
-1128 -1206 0
-1128 -1207 0
-1128 -1208 0
-1128 -1209 0
-1128 -1210 0
-1128 -1211 0
-1129 -1130 0
-1129 -1131 0
-1129 -1132 0
-1129 -1133 0
-1129 -1134 0
-1129 -1135 0
-1129 -1136 0
-1129 -1137 0
-1129 -1138 0
-1129 -1139 0
-1129 -1140 0
-1129 -1141 0
-1129 -1142 0
-1129 -1143 0
-1129 -1144 0
-1129 -1145 0
-1129 -1146 0
-1129 -1147 0
-1129 -1148 0
-1129 -1149 0
-1129 -1150 0
-1129 -1151 0
-1129 -1152 0
-1129 -1153 0
-1129 -1154 0
-1129 -1155 0
-1129 -1156 0
-1129 -1157 0
-1129 -1158 0
-1129 -1159 0
-1129 -1160 0
-1129 -1161 0
-1129 -1162 0
-1129 -1163 0
-1129 -1164 0
-1129 -1165 0
-1129 -1166 0
-1129 -1167 0
-1129 -1168 0
-1129 -1169 0
-1129 -1170 0
-1129 -1171 0
-1129 -1172 0
-1129 -1173 0
-1129 -1174 0
-1129 -1175 0
-1129 -1176 0
-1129 -1177 0
-1129 -1178 0
-1129 -1179 0
-1129 -1180 0
-1129 -1181 0
-1129 -1182 0
-1129 -1183 0
-1129 -1184 0
-1129 -1185 0
-1129 -1186 0
-1129 -1187 0
-1129 -1188 0
-1129 -1189 0
-1129 -1190 0
-1129 -1191 0
-1129 -1192 0
-1129 -1193 0
-1129 -1194 0
-1129 -1195 0
-1129 -1196 0
-1129 -1197 0
-1129 -1198 0
-1129 -1199 0
-1129 -1200 0
-1129 -1201 0
-1129 -1202 0
-1129 -1203 0
-1129 -1204 0
-1129 -1205 0
-1129 -1206 0
-1129 -1207 0
-1129 -1208 0
-1129 -1209 0
-1129 -1210 0
-1129 -1211 0
-1130 -1131 0
-1130 -1132 0
-1130 -1133 0
-1130 -1134 0
-1130 -1135 0
-1130 -1136 0
-1130 -1137 0
-1130 -1138 0
-1130 -1139 0
-1130 -1140 0
-1130 -1141 0
-1130 -1142 0
-1130 -1143 0
-1130 -1144 0
-1130 -1145 0
-1130 -1146 0
-1130 -1147 0
-1130 -1148 0
-1130 -1149 0
-1130 -1150 0
-1130 -1151 0
-1130 -1152 0
-1130 -1153 0
-1130 -1154 0
-1130 -1155 0
-1130 -1156 0
-1130 -1157 0
-1130 -1158 0
-1130 -1159 0
-1130 -1160 0
-1130 -1161 0
-1130 -1162 0
-1130 -1163 0
-1130 -1164 0
-1130 -1165 0
-1130 -1166 0
-1130 -1167 0
-1130 -1168 0
-1130 -1169 0
-1130 -1170 0
-1130 -1171 0
-1130 -1172 0
-1130 -1173 0
-1130 -1174 0
-1130 -1175 0
-1130 -1176 0
-1130 -1177 0
-1130 -1178 0
-1130 -1179 0
-1130 -1180 0
-1130 -1181 0
-1130 -1182 0
-1130 -1183 0
-1130 -1184 0
-1130 -1185 0
-1130 -1186 0
-1130 -1187 0
-1130 -1188 0
-1130 -1189 0
-1130 -1190 0
-1130 -1191 0
-1130 -1192 0
-1130 -1193 0
-1130 -1194 0
-1130 -1195 0
-1130 -1196 0
-1130 -1197 0
-1130 -1198 0
-1130 -1199 0
-1130 -1200 0
-1130 -1201 0
-1130 -1202 0
-1130 -1203 0
-1130 -1204 0
-1130 -1205 0
-1130 -1206 0
-1130 -1207 0
-1130 -1208 0
-1130 -1209 0
-1130 -1210 0
-1130 -1211 0
-1131 -1132 0
-1131 -1133 0
-1131 -1134 0
-1131 -1135 0
-1131 -1136 0
-1131 -1137 0
-1131 -1138 0
-1131 -1139 0
-1131 -1140 0
-1131 -1141 0
-1131 -1142 0
-1131 -1143 0
-1131 -1144 0
-1131 -1145 0
-1131 -1146 0
-1131 -1147 0
-1131 -1148 0
-1131 -1149 0
-1131 -1150 0
-1131 -1151 0
-1131 -1152 0
-1131 -1153 0
-1131 -1154 0
-1131 -1155 0
-1131 -1156 0
-1131 -1157 0
-1131 -1158 0
-1131 -1159 0
-1131 -1160 0
-1131 -1161 0
-1131 -1162 0
-1131 -1163 0
-1131 -1164 0
-1131 -1165 0
-1131 -1166 0
-1131 -1167 0
-1131 -1168 0
-1131 -1169 0
-1131 -1170 0
-1131 -1171 0
-1131 -1172 0
-1131 -1173 0
-1131 -1174 0
-1131 -1175 0
-1131 -1176 0
-1131 -1177 0
-1131 -1178 0
-1131 -1179 0
-1131 -1180 0
-1131 -1181 0
-1131 -1182 0
-1131 -1183 0
-1131 -1184 0
-1131 -1185 0
-1131 -1186 0
-1131 -1187 0
-1131 -1188 0
-1131 -1189 0
-1131 -1190 0
-1131 -1191 0
-1131 -1192 0
-1131 -1193 0
-1131 -1194 0
-1131 -1195 0
-1131 -1196 0
-1131 -1197 0
-1131 -1198 0
-1131 -1199 0
-1131 -1200 0
-1131 -1201 0
-1131 -1202 0
-1131 -1203 0
-1131 -1204 0
-1131 -1205 0
-1131 -1206 0
-1131 -1207 0
-1131 -1208 0
-1131 -1209 0
-1131 -1210 0
-1131 -1211 0
-1132 -1133 0
-1132 -1134 0
-1132 -1135 0
-1132 -1136 0
-1132 -1137 0
-1132 -1138 0
-1132 -1139 0
-1132 -1140 0
-1132 -1141 0
-1132 -1142 0
-1132 -1143 0
-1132 -1144 0
-1132 -1145 0
-1132 -1146 0
-1132 -1147 0
-1132 -1148 0
-1132 -1149 0
-1132 -1150 0
-1132 -1151 0
-1132 -1152 0
-1132 -1153 0
-1132 -1154 0
-1132 -1155 0
-1132 -1156 0
-1132 -1157 0
-1132 -1158 0
-1132 -1159 0
-1132 -1160 0
-1132 -1161 0
-1132 -1162 0
-1132 -1163 0
-1132 -1164 0
-1132 -1165 0
-1132 -1166 0
-1132 -1167 0
-1132 -1168 0
-1132 -1169 0
-1132 -1170 0
-1132 -1171 0
-1132 -1172 0
-1132 -1173 0
-1132 -1174 0
-1132 -1175 0
-1132 -1176 0
-1132 -1177 0
-1132 -1178 0
-1132 -1179 0
-1132 -1180 0
-1132 -1181 0
-1132 -1182 0
-1132 -1183 0
-1132 -1184 0
-1132 -1185 0
-1132 -1186 0
-1132 -1187 0
-1132 -1188 0
-1132 -1189 0
-1132 -1190 0
-1132 -1191 0
-1132 -1192 0
-1132 -1193 0
-1132 -1194 0
-1132 -1195 0
-1132 -1196 0
-1132 -1197 0
-1132 -1198 0
-1132 -1199 0
-1132 -1200 0
-1132 -1201 0
-1132 -1202 0
-1132 -1203 0
-1132 -1204 0
-1132 -1205 0
-1132 -1206 0
-1132 -1207 0
-1132 -1208 0
-1132 -1209 0
-1132 -1210 0
-1132 -1211 0
-1133 -1134 0
-1133 -1135 0
-1133 -1136 0
-1133 -1137 0
-1133 -1138 0
-1133 -1139 0
-1133 -1140 0
-1133 -1141 0
-1133 -1142 0
-1133 -1143 0
-1133 -1144 0
-1133 -1145 0
-1133 -1146 0
-1133 -1147 0
-1133 -1148 0
-1133 -1149 0
-1133 -1150 0
-1133 -1151 0
-1133 -1152 0
-1133 -1153 0
-1133 -1154 0
-1133 -1155 0
-1133 -1156 0
-1133 -1157 0
-1133 -1158 0
-1133 -1159 0
-1133 -1160 0
-1133 -1161 0
-1133 -1162 0
-1133 -1163 0
-1133 -1164 0
-1133 -1165 0
-1133 -1166 0
-1133 -1167 0
-1133 -1168 0
-1133 -1169 0
-1133 -1170 0
-1133 -1171 0
-1133 -1172 0
-1133 -1173 0
-1133 -1174 0
-1133 -1175 0
-1133 -1176 0
-1133 -1177 0
-1133 -1178 0
-1133 -1179 0
-1133 -1180 0
-1133 -1181 0
-1133 -1182 0
-1133 -1183 0
-1133 -1184 0
-1133 -1185 0
-1133 -1186 0
-1133 -1187 0
-1133 -1188 0
-1133 -1189 0
-1133 -1190 0
-1133 -1191 0
-1133 -1192 0
-1133 -1193 0
-1133 -1194 0
-1133 -1195 0
-1133 -1196 0
-1133 -1197 0
-1133 -1198 0
-1133 -1199 0
-1133 -1200 0
-1133 -1201 0
-1133 -1202 0
-1133 -1203 0
-1133 -1204 0
-1133 -1205 0
-1133 -1206 0
-1133 -1207 0
-1133 -1208 0
-1133 -1209 0
-1133 -1210 0
-1133 -1211 0
-1134 -1135 0
-1134 -1136 0
-1134 -1137 0
-1134 -1138 0
-1134 -1139 0
-1134 -1140 0
-1134 -1141 0
-1134 -1142 0
-1134 -1143 0
-1134 -1144 0
-1134 -1145 0
-1134 -1146 0
-1134 -1147 0
-1134 -1148 0
-1134 -1149 0
-1134 -1150 0
-1134 -1151 0
-1134 -1152 0
-1134 -1153 0
-1134 -1154 0
-1134 -1155 0
-1134 -1156 0
-1134 -1157 0
-1134 -1158 0
-1134 -1159 0
-1134 -1160 0
-1134 -1161 0
-1134 -1162 0
-1134 -1163 0
-1134 -1164 0
-1134 -1165 0
-1134 -1166 0
-1134 -1167 0
-1134 -1168 0
-1134 -1169 0
-1134 -1170 0
-1134 -1171 0
-1134 -1172 0
-1134 -1173 0
-1134 -1174 0
-1134 -1175 0
-1134 -1176 0
-1134 -1177 0
-1134 -1178 0
-1134 -1179 0
-1134 -1180 0
-1134 -1181 0
-1134 -1182 0
-1134 -1183 0
-1134 -1184 0
-1134 -1185 0
-1134 -1186 0
-1134 -1187 0
-1134 -1188 0
-1134 -1189 0
-1134 -1190 0
-1134 -1191 0
-1134 -1192 0
-1134 -1193 0
-1134 -1194 0
-1134 -1195 0
-1134 -1196 0
-1134 -1197 0
-1134 -1198 0
-1134 -1199 0
-1134 -1200 0
-1134 -1201 0
-1134 -1202 0
-1134 -1203 0
-1134 -1204 0
-1134 -1205 0
-1134 -1206 0
-1134 -1207 0
-1134 -1208 0
-1134 -1209 0
-1134 -1210 0
-1134 -1211 0
-1135 -1136 0
-1135 -1137 0
-1135 -1138 0
-1135 -1139 0
-1135 -1140 0
-1135 -1141 0
-1135 -1142 0
-1135 -1143 0
-1135 -1144 0
-1135 -1145 0
-1135 -1146 0
-1135 -1147 0
-1135 -1148 0
-1135 -1149 0
-1135 -1150 0
-1135 -1151 0
-1135 -1152 0
-1135 -1153 0
-1135 -1154 0
-1135 -1155 0
-1135 -1156 0
-1135 -1157 0
-1135 -1158 0
-1135 -1159 0
-1135 -1160 0
-1135 -1161 0
-1135 -1162 0
-1135 -1163 0
-1135 -1164 0
-1135 -1165 0
-1135 -1166 0
-1135 -1167 0
-1135 -1168 0
-1135 -1169 0
-1135 -1170 0
-1135 -1171 0
-1135 -1172 0
-1135 -1173 0
-1135 -1174 0
-1135 -1175 0
-1135 -1176 0
-1135 -1177 0
-1135 -1178 0
-1135 -1179 0
-1135 -1180 0
-1135 -1181 0
-1135 -1182 0
-1135 -1183 0
-1135 -1184 0
-1135 -1185 0
-1135 -1186 0
-1135 -1187 0
-1135 -1188 0
-1135 -1189 0
-1135 -1190 0
-1135 -1191 0
-1135 -1192 0
-1135 -1193 0
-1135 -1194 0
-1135 -1195 0
-1135 -1196 0
-1135 -1197 0
-1135 -1198 0
-1135 -1199 0
-1135 -1200 0
-1135 -1201 0
-1135 -1202 0
-1135 -1203 0
-1135 -1204 0
-1135 -1205 0
-1135 -1206 0
-1135 -1207 0
-1135 -1208 0
-1135 -1209 0
-1135 -1210 0
-1135 -1211 0
-1136 -1137 0
-1136 -1138 0
-1136 -1139 0
-1136 -1140 0
-1136 -1141 0
-1136 -1142 0
-1136 -1143 0
-1136 -1144 0
-1136 -1145 0
-1136 -1146 0
-1136 -1147 0
-1136 -1148 0
-1136 -1149 0
-1136 -1150 0
-1136 -1151 0
-1136 -1152 0
-1136 -1153 0
-1136 -1154 0
-1136 -1155 0
-1136 -1156 0
-1136 -1157 0
-1136 -1158 0
-1136 -1159 0
-1136 -1160 0
-1136 -1161 0
-1136 -1162 0
-1136 -1163 0
-1136 -1164 0
-1136 -1165 0
-1136 -1166 0
-1136 -1167 0
-1136 -1168 0
-1136 -1169 0
-1136 -1170 0
-1136 -1171 0
-1136 -1172 0
-1136 -1173 0
-1136 -1174 0
-1136 -1175 0
-1136 -1176 0
-1136 -1177 0
-1136 -1178 0
-1136 -1179 0
-1136 -1180 0
-1136 -1181 0
-1136 -1182 0
-1136 -1183 0
-1136 -1184 0
-1136 -1185 0
-1136 -1186 0
-1136 -1187 0
-1136 -1188 0
-1136 -1189 0
-1136 -1190 0
-1136 -1191 0
-1136 -1192 0
-1136 -1193 0
-1136 -1194 0
-1136 -1195 0
-1136 -1196 0
-1136 -1197 0
-1136 -1198 0
-1136 -1199 0
-1136 -1200 0
-1136 -1201 0
-1136 -1202 0
-1136 -1203 0
-1136 -1204 0
-1136 -1205 0
-1136 -1206 0
-1136 -1207 0
-1136 -1208 0
-1136 -1209 0
-1136 -1210 0
-1136 -1211 0
-1137 -1138 0
-1137 -1139 0
-1137 -1140 0
-1137 -1141 0
-1137 -1142 0
-1137 -1143 0
-1137 -1144 0
-1137 -1145 0
-1137 -1146 0
-1137 -1147 0
-1137 -1148 0
-1137 -1149 0
-1137 -1150 0
-1137 -1151 0
-1137 -1152 0
-1137 -1153 0
-1137 -1154 0
-1137 -1155 0
-1137 -1156 0
-1137 -1157 0
-1137 -1158 0
-1137 -1159 0
-1137 -1160 0
-1137 -1161 0
-1137 -1162 0
-1137 -1163 0
-1137 -1164 0
-1137 -1165 0
-1137 -1166 0
-1137 -1167 0
-1137 -1168 0
-1137 -1169 0
-1137 -1170 0
-1137 -1171 0
-1137 -1172 0
-1137 -1173 0
-1137 -1174 0
-1137 -1175 0
-1137 -1176 0
-1137 -1177 0
-1137 -1178 0
-1137 -1179 0
-1137 -1180 0
-1137 -1181 0
-1137 -1182 0
-1137 -1183 0
-1137 -1184 0
-1137 -1185 0
-1137 -1186 0
-1137 -1187 0
-1137 -1188 0
-1137 -1189 0
-1137 -1190 0
-1137 -1191 0
-1137 -1192 0
-1137 -1193 0
-1137 -1194 0
-1137 -1195 0
-1137 -1196 0
-1137 -1197 0
-1137 -1198 0
-1137 -1199 0
-1137 -1200 0
-1137 -1201 0
-1137 -1202 0
-1137 -1203 0
-1137 -1204 0
-1137 -1205 0
-1137 -1206 0
-1137 -1207 0
-1137 -1208 0
-1137 -1209 0
-1137 -1210 0
-1137 -1211 0
-1138 -1139 0
-1138 -1140 0
-1138 -1141 0
-1138 -1142 0
-1138 -1143 0
-1138 -1144 0
-1138 -1145 0
-1138 -1146 0
-1138 -1147 0
-1138 -1148 0
-1138 -1149 0
-1138 -1150 0
-1138 -1151 0
-1138 -1152 0
-1138 -1153 0
-1138 -1154 0
-1138 -1155 0
-1138 -1156 0
-1138 -1157 0
-1138 -1158 0
-1138 -1159 0
-1138 -1160 0
-1138 -1161 0
-1138 -1162 0
-1138 -1163 0
-1138 -1164 0
-1138 -1165 0
-1138 -1166 0
-1138 -1167 0
-1138 -1168 0
-1138 -1169 0
-1138 -1170 0
-1138 -1171 0
-1138 -1172 0
-1138 -1173 0
-1138 -1174 0
-1138 -1175 0
-1138 -1176 0
-1138 -1177 0
-1138 -1178 0
-1138 -1179 0
-1138 -1180 0
-1138 -1181 0
-1138 -1182 0
-1138 -1183 0
-1138 -1184 0
-1138 -1185 0
-1138 -1186 0
-1138 -1187 0
-1138 -1188 0
-1138 -1189 0
-1138 -1190 0
-1138 -1191 0
-1138 -1192 0
-1138 -1193 0
-1138 -1194 0
-1138 -1195 0
-1138 -1196 0
-1138 -1197 0
-1138 -1198 0
-1138 -1199 0
-1138 -1200 0
-1138 -1201 0
-1138 -1202 0
-1138 -1203 0
-1138 -1204 0
-1138 -1205 0
-1138 -1206 0
-1138 -1207 0
-1138 -1208 0
-1138 -1209 0
-1138 -1210 0
-1138 -1211 0
-1139 -1140 0
-1139 -1141 0
-1139 -1142 0
-1139 -1143 0
-1139 -1144 0
-1139 -1145 0
-1139 -1146 0
-1139 -1147 0
-1139 -1148 0
-1139 -1149 0
-1139 -1150 0
-1139 -1151 0
-1139 -1152 0
-1139 -1153 0
-1139 -1154 0
-1139 -1155 0
-1139 -1156 0
-1139 -1157 0
-1139 -1158 0
-1139 -1159 0
-1139 -1160 0
-1139 -1161 0
-1139 -1162 0
-1139 -1163 0
-1139 -1164 0
-1139 -1165 0
-1139 -1166 0
-1139 -1167 0
-1139 -1168 0
-1139 -1169 0
-1139 -1170 0
-1139 -1171 0
-1139 -1172 0
-1139 -1173 0
-1139 -1174 0
-1139 -1175 0
-1139 -1176 0
-1139 -1177 0
-1139 -1178 0
-1139 -1179 0
-1139 -1180 0
-1139 -1181 0
-1139 -1182 0
-1139 -1183 0
-1139 -1184 0
-1139 -1185 0
-1139 -1186 0
-1139 -1187 0
-1139 -1188 0
-1139 -1189 0
-1139 -1190 0
-1139 -1191 0
-1139 -1192 0
-1139 -1193 0
-1139 -1194 0
-1139 -1195 0
-1139 -1196 0
-1139 -1197 0
-1139 -1198 0
-1139 -1199 0
-1139 -1200 0
-1139 -1201 0
-1139 -1202 0
-1139 -1203 0
-1139 -1204 0
-1139 -1205 0
-1139 -1206 0
-1139 -1207 0
-1139 -1208 0
-1139 -1209 0
-1139 -1210 0
-1139 -1211 0
-1140 -1141 0
-1140 -1142 0
-1140 -1143 0
-1140 -1144 0
-1140 -1145 0
-1140 -1146 0
-1140 -1147 0
-1140 -1148 0
-1140 -1149 0
-1140 -1150 0
-1140 -1151 0
-1140 -1152 0
-1140 -1153 0
-1140 -1154 0
-1140 -1155 0
-1140 -1156 0
-1140 -1157 0
-1140 -1158 0
-1140 -1159 0
-1140 -1160 0
-1140 -1161 0
-1140 -1162 0
-1140 -1163 0
-1140 -1164 0
-1140 -1165 0
-1140 -1166 0
-1140 -1167 0
-1140 -1168 0
-1140 -1169 0
-1140 -1170 0
-1140 -1171 0
-1140 -1172 0
-1140 -1173 0
-1140 -1174 0
-1140 -1175 0
-1140 -1176 0
-1140 -1177 0
-1140 -1178 0
-1140 -1179 0
-1140 -1180 0
-1140 -1181 0
-1140 -1182 0
-1140 -1183 0
-1140 -1184 0
-1140 -1185 0
-1140 -1186 0
-1140 -1187 0
-1140 -1188 0
-1140 -1189 0
-1140 -1190 0
-1140 -1191 0
-1140 -1192 0
-1140 -1193 0
-1140 -1194 0
-1140 -1195 0
-1140 -1196 0
-1140 -1197 0
-1140 -1198 0
-1140 -1199 0
-1140 -1200 0
-1140 -1201 0
-1140 -1202 0
-1140 -1203 0
-1140 -1204 0
-1140 -1205 0
-1140 -1206 0
-1140 -1207 0
-1140 -1208 0
-1140 -1209 0
-1140 -1210 0
-1140 -1211 0
-1141 -1142 0
-1141 -1143 0
-1141 -1144 0
-1141 -1145 0
-1141 -1146 0
-1141 -1147 0
-1141 -1148 0
-1141 -1149 0
-1141 -1150 0
-1141 -1151 0
-1141 -1152 0
-1141 -1153 0
-1141 -1154 0
-1141 -1155 0
-1141 -1156 0
-1141 -1157 0
-1141 -1158 0
-1141 -1159 0
-1141 -1160 0
-1141 -1161 0
-1141 -1162 0
-1141 -1163 0
-1141 -1164 0
-1141 -1165 0
-1141 -1166 0
-1141 -1167 0
-1141 -1168 0
-1141 -1169 0
-1141 -1170 0
-1141 -1171 0
-1141 -1172 0
-1141 -1173 0
-1141 -1174 0
-1141 -1175 0
-1141 -1176 0
-1141 -1177 0
-1141 -1178 0
-1141 -1179 0
-1141 -1180 0
-1141 -1181 0
-1141 -1182 0
-1141 -1183 0
-1141 -1184 0
-1141 -1185 0
-1141 -1186 0
-1141 -1187 0
-1141 -1188 0
-1141 -1189 0
-1141 -1190 0
-1141 -1191 0
-1141 -1192 0
-1141 -1193 0
-1141 -1194 0
-1141 -1195 0
-1141 -1196 0
-1141 -1197 0
-1141 -1198 0
-1141 -1199 0
-1141 -1200 0
-1141 -1201 0
-1141 -1202 0
-1141 -1203 0
-1141 -1204 0
-1141 -1205 0
-1141 -1206 0
-1141 -1207 0
-1141 -1208 0
-1141 -1209 0
-1141 -1210 0
-1141 -1211 0
-1142 -1143 0
-1142 -1144 0
-1142 -1145 0
-1142 -1146 0
-1142 -1147 0
-1142 -1148 0
-1142 -1149 0
-1142 -1150 0
-1142 -1151 0
-1142 -1152 0
-1142 -1153 0
-1142 -1154 0
-1142 -1155 0
-1142 -1156 0
-1142 -1157 0
-1142 -1158 0
-1142 -1159 0
-1142 -1160 0
-1142 -1161 0
-1142 -1162 0
-1142 -1163 0
-1142 -1164 0
-1142 -1165 0
-1142 -1166 0
-1142 -1167 0
-1142 -1168 0
-1142 -1169 0
-1142 -1170 0
-1142 -1171 0
-1142 -1172 0
-1142 -1173 0
-1142 -1174 0
-1142 -1175 0
-1142 -1176 0
-1142 -1177 0
-1142 -1178 0
-1142 -1179 0
-1142 -1180 0
-1142 -1181 0
-1142 -1182 0
-1142 -1183 0
-1142 -1184 0
-1142 -1185 0
-1142 -1186 0
-1142 -1187 0
-1142 -1188 0
-1142 -1189 0
-1142 -1190 0
-1142 -1191 0
-1142 -1192 0
-1142 -1193 0
-1142 -1194 0
-1142 -1195 0
-1142 -1196 0
-1142 -1197 0
-1142 -1198 0
-1142 -1199 0
-1142 -1200 0
-1142 -1201 0
-1142 -1202 0
-1142 -1203 0
-1142 -1204 0
-1142 -1205 0
-1142 -1206 0
-1142 -1207 0
-1142 -1208 0
-1142 -1209 0
-1142 -1210 0
-1142 -1211 0
-1143 -1144 0
-1143 -1145 0
-1143 -1146 0
-1143 -1147 0
-1143 -1148 0
-1143 -1149 0
-1143 -1150 0
-1143 -1151 0
-1143 -1152 0
-1143 -1153 0
-1143 -1154 0
-1143 -1155 0
-1143 -1156 0
-1143 -1157 0
-1143 -1158 0
-1143 -1159 0
-1143 -1160 0
-1143 -1161 0
-1143 -1162 0
-1143 -1163 0
-1143 -1164 0
-1143 -1165 0
-1143 -1166 0
-1143 -1167 0
-1143 -1168 0
-1143 -1169 0
-1143 -1170 0
-1143 -1171 0
-1143 -1172 0
-1143 -1173 0
-1143 -1174 0
-1143 -1175 0
-1143 -1176 0
-1143 -1177 0
-1143 -1178 0
-1143 -1179 0
-1143 -1180 0
-1143 -1181 0
-1143 -1182 0
-1143 -1183 0
-1143 -1184 0
-1143 -1185 0
-1143 -1186 0
-1143 -1187 0
-1143 -1188 0
-1143 -1189 0
-1143 -1190 0
-1143 -1191 0
-1143 -1192 0
-1143 -1193 0
-1143 -1194 0
-1143 -1195 0
-1143 -1196 0
-1143 -1197 0
-1143 -1198 0
-1143 -1199 0
-1143 -1200 0
-1143 -1201 0
-1143 -1202 0
-1143 -1203 0
-1143 -1204 0
-1143 -1205 0
-1143 -1206 0
-1143 -1207 0
-1143 -1208 0
-1143 -1209 0
-1143 -1210 0
-1143 -1211 0
-1144 -1145 0
-1144 -1146 0
-1144 -1147 0
-1144 -1148 0
-1144 -1149 0
-1144 -1150 0
-1144 -1151 0
-1144 -1152 0
-1144 -1153 0
-1144 -1154 0
-1144 -1155 0
-1144 -1156 0
-1144 -1157 0
-1144 -1158 0
-1144 -1159 0
-1144 -1160 0
-1144 -1161 0
-1144 -1162 0
-1144 -1163 0
-1144 -1164 0
-1144 -1165 0
-1144 -1166 0
-1144 -1167 0
-1144 -1168 0
-1144 -1169 0
-1144 -1170 0
-1144 -1171 0
-1144 -1172 0
-1144 -1173 0
-1144 -1174 0
-1144 -1175 0
-1144 -1176 0
-1144 -1177 0
-1144 -1178 0
-1144 -1179 0
-1144 -1180 0
-1144 -1181 0
-1144 -1182 0
-1144 -1183 0
-1144 -1184 0
-1144 -1185 0
-1144 -1186 0
-1144 -1187 0
-1144 -1188 0
-1144 -1189 0
-1144 -1190 0
-1144 -1191 0
-1144 -1192 0
-1144 -1193 0
-1144 -1194 0
-1144 -1195 0
-1144 -1196 0
-1144 -1197 0
-1144 -1198 0
-1144 -1199 0
-1144 -1200 0
-1144 -1201 0
-1144 -1202 0
-1144 -1203 0
-1144 -1204 0
-1144 -1205 0
-1144 -1206 0
-1144 -1207 0
-1144 -1208 0
-1144 -1209 0
-1144 -1210 0
-1144 -1211 0
-1145 -1146 0
-1145 -1147 0
-1145 -1148 0
-1145 -1149 0
-1145 -1150 0
-1145 -1151 0
-1145 -1152 0
-1145 -1153 0
-1145 -1154 0
-1145 -1155 0
-1145 -1156 0
-1145 -1157 0
-1145 -1158 0
-1145 -1159 0
-1145 -1160 0
-1145 -1161 0
-1145 -1162 0
-1145 -1163 0
-1145 -1164 0
-1145 -1165 0
-1145 -1166 0
-1145 -1167 0
-1145 -1168 0
-1145 -1169 0
-1145 -1170 0
-1145 -1171 0
-1145 -1172 0
-1145 -1173 0
-1145 -1174 0
-1145 -1175 0
-1145 -1176 0
-1145 -1177 0
-1145 -1178 0
-1145 -1179 0
-1145 -1180 0
-1145 -1181 0
-1145 -1182 0
-1145 -1183 0
-1145 -1184 0
-1145 -1185 0
-1145 -1186 0
-1145 -1187 0
-1145 -1188 0
-1145 -1189 0
-1145 -1190 0
-1145 -1191 0
-1145 -1192 0
-1145 -1193 0
-1145 -1194 0
-1145 -1195 0
-1145 -1196 0
-1145 -1197 0
-1145 -1198 0
-1145 -1199 0
-1145 -1200 0
-1145 -1201 0
-1145 -1202 0
-1145 -1203 0
-1145 -1204 0
-1145 -1205 0
-1145 -1206 0
-1145 -1207 0
-1145 -1208 0
-1145 -1209 0
-1145 -1210 0
-1145 -1211 0
-1146 -1147 0
-1146 -1148 0
-1146 -1149 0
-1146 -1150 0
-1146 -1151 0
-1146 -1152 0
-1146 -1153 0
-1146 -1154 0
-1146 -1155 0
-1146 -1156 0
-1146 -1157 0
-1146 -1158 0
-1146 -1159 0
-1146 -1160 0
-1146 -1161 0
-1146 -1162 0
-1146 -1163 0
-1146 -1164 0
-1146 -1165 0
-1146 -1166 0
-1146 -1167 0
-1146 -1168 0
-1146 -1169 0
-1146 -1170 0
-1146 -1171 0
-1146 -1172 0
-1146 -1173 0
-1146 -1174 0
-1146 -1175 0
-1146 -1176 0
-1146 -1177 0
-1146 -1178 0
-1146 -1179 0
-1146 -1180 0
-1146 -1181 0
-1146 -1182 0
-1146 -1183 0
-1146 -1184 0
-1146 -1185 0
-1146 -1186 0
-1146 -1187 0
-1146 -1188 0
-1146 -1189 0
-1146 -1190 0
-1146 -1191 0
-1146 -1192 0
-1146 -1193 0
-1146 -1194 0
-1146 -1195 0
-1146 -1196 0
-1146 -1197 0
-1146 -1198 0
-1146 -1199 0
-1146 -1200 0
-1146 -1201 0
-1146 -1202 0
-1146 -1203 0
-1146 -1204 0
-1146 -1205 0
-1146 -1206 0
-1146 -1207 0
-1146 -1208 0
-1146 -1209 0
-1146 -1210 0
-1146 -1211 0
-1147 -1148 0
-1147 -1149 0
-1147 -1150 0
-1147 -1151 0
-1147 -1152 0
-1147 -1153 0
-1147 -1154 0
-1147 -1155 0
-1147 -1156 0
-1147 -1157 0
-1147 -1158 0
-1147 -1159 0
-1147 -1160 0
-1147 -1161 0
-1147 -1162 0
-1147 -1163 0
-1147 -1164 0
-1147 -1165 0
-1147 -1166 0
-1147 -1167 0
-1147 -1168 0
-1147 -1169 0
-1147 -1170 0
-1147 -1171 0
-1147 -1172 0
-1147 -1173 0
-1147 -1174 0
-1147 -1175 0
-1147 -1176 0
-1147 -1177 0
-1147 -1178 0
-1147 -1179 0
-1147 -1180 0
-1147 -1181 0
-1147 -1182 0
-1147 -1183 0
-1147 -1184 0
-1147 -1185 0
-1147 -1186 0
-1147 -1187 0
-1147 -1188 0
-1147 -1189 0
-1147 -1190 0
-1147 -1191 0
-1147 -1192 0
-1147 -1193 0
-1147 -1194 0
-1147 -1195 0
-1147 -1196 0
-1147 -1197 0
-1147 -1198 0
-1147 -1199 0
-1147 -1200 0
-1147 -1201 0
-1147 -1202 0
-1147 -1203 0
-1147 -1204 0
-1147 -1205 0
-1147 -1206 0
-1147 -1207 0
-1147 -1208 0
-1147 -1209 0
-1147 -1210 0
-1147 -1211 0
-1148 -1149 0
-1148 -1150 0
-1148 -1151 0
-1148 -1152 0
-1148 -1153 0
-1148 -1154 0
-1148 -1155 0
-1148 -1156 0
-1148 -1157 0
-1148 -1158 0
-1148 -1159 0
-1148 -1160 0
-1148 -1161 0
-1148 -1162 0
-1148 -1163 0
-1148 -1164 0
-1148 -1165 0
-1148 -1166 0
-1148 -1167 0
-1148 -1168 0
-1148 -1169 0
-1148 -1170 0
-1148 -1171 0
-1148 -1172 0
-1148 -1173 0
-1148 -1174 0
-1148 -1175 0
-1148 -1176 0
-1148 -1177 0
-1148 -1178 0
-1148 -1179 0
-1148 -1180 0
-1148 -1181 0
-1148 -1182 0
-1148 -1183 0
-1148 -1184 0
-1148 -1185 0
-1148 -1186 0
-1148 -1187 0
-1148 -1188 0
-1148 -1189 0
-1148 -1190 0
-1148 -1191 0
-1148 -1192 0
-1148 -1193 0
-1148 -1194 0
-1148 -1195 0
-1148 -1196 0
-1148 -1197 0
-1148 -1198 0
-1148 -1199 0
-1148 -1200 0
-1148 -1201 0
-1148 -1202 0
-1148 -1203 0
-1148 -1204 0
-1148 -1205 0
-1148 -1206 0
-1148 -1207 0
-1148 -1208 0
-1148 -1209 0
-1148 -1210 0
-1148 -1211 0
-1149 -1150 0
-1149 -1151 0
-1149 -1152 0
-1149 -1153 0
-1149 -1154 0
-1149 -1155 0
-1149 -1156 0
-1149 -1157 0
-1149 -1158 0
-1149 -1159 0
-1149 -1160 0
-1149 -1161 0
-1149 -1162 0
-1149 -1163 0
-1149 -1164 0
-1149 -1165 0
-1149 -1166 0
-1149 -1167 0
-1149 -1168 0
-1149 -1169 0
-1149 -1170 0
-1149 -1171 0
-1149 -1172 0
-1149 -1173 0
-1149 -1174 0
-1149 -1175 0
-1149 -1176 0
-1149 -1177 0
-1149 -1178 0
-1149 -1179 0
-1149 -1180 0
-1149 -1181 0
-1149 -1182 0
-1149 -1183 0
-1149 -1184 0
-1149 -1185 0
-1149 -1186 0
-1149 -1187 0
-1149 -1188 0
-1149 -1189 0
-1149 -1190 0
-1149 -1191 0
-1149 -1192 0
-1149 -1193 0
-1149 -1194 0
-1149 -1195 0
-1149 -1196 0
-1149 -1197 0
-1149 -1198 0
-1149 -1199 0
-1149 -1200 0
-1149 -1201 0
-1149 -1202 0
-1149 -1203 0
-1149 -1204 0
-1149 -1205 0
-1149 -1206 0
-1149 -1207 0
-1149 -1208 0
-1149 -1209 0
-1149 -1210 0
-1149 -1211 0
-1150 -1151 0
-1150 -1152 0
-1150 -1153 0
-1150 -1154 0
-1150 -1155 0
-1150 -1156 0
-1150 -1157 0
-1150 -1158 0
-1150 -1159 0
-1150 -1160 0
-1150 -1161 0
-1150 -1162 0
-1150 -1163 0
-1150 -1164 0
-1150 -1165 0
-1150 -1166 0
-1150 -1167 0
-1150 -1168 0
-1150 -1169 0
-1150 -1170 0
-1150 -1171 0
-1150 -1172 0
-1150 -1173 0
-1150 -1174 0
-1150 -1175 0
-1150 -1176 0
-1150 -1177 0
-1150 -1178 0
-1150 -1179 0
-1150 -1180 0
-1150 -1181 0
-1150 -1182 0
-1150 -1183 0
-1150 -1184 0
-1150 -1185 0
-1150 -1186 0
-1150 -1187 0
-1150 -1188 0
-1150 -1189 0
-1150 -1190 0
-1150 -1191 0
-1150 -1192 0
-1150 -1193 0
-1150 -1194 0
-1150 -1195 0
-1150 -1196 0
-1150 -1197 0
-1150 -1198 0
-1150 -1199 0
-1150 -1200 0
-1150 -1201 0
-1150 -1202 0
-1150 -1203 0
-1150 -1204 0
-1150 -1205 0
-1150 -1206 0
-1150 -1207 0
-1150 -1208 0
-1150 -1209 0
-1150 -1210 0
-1150 -1211 0
-1151 -1152 0
-1151 -1153 0
-1151 -1154 0
-1151 -1155 0
-1151 -1156 0
-1151 -1157 0
-1151 -1158 0
-1151 -1159 0
-1151 -1160 0
-1151 -1161 0
-1151 -1162 0
-1151 -1163 0
-1151 -1164 0
-1151 -1165 0
-1151 -1166 0
-1151 -1167 0
-1151 -1168 0
-1151 -1169 0
-1151 -1170 0
-1151 -1171 0
-1151 -1172 0
-1151 -1173 0
-1151 -1174 0
-1151 -1175 0
-1151 -1176 0
-1151 -1177 0
-1151 -1178 0
-1151 -1179 0
-1151 -1180 0
-1151 -1181 0
-1151 -1182 0
-1151 -1183 0
-1151 -1184 0
-1151 -1185 0
-1151 -1186 0
-1151 -1187 0
-1151 -1188 0
-1151 -1189 0
-1151 -1190 0
-1151 -1191 0
-1151 -1192 0
-1151 -1193 0
-1151 -1194 0
-1151 -1195 0
-1151 -1196 0
-1151 -1197 0
-1151 -1198 0
-1151 -1199 0
-1151 -1200 0
-1151 -1201 0
-1151 -1202 0
-1151 -1203 0
-1151 -1204 0
-1151 -1205 0
-1151 -1206 0
-1151 -1207 0
-1151 -1208 0
-1151 -1209 0
-1151 -1210 0
-1151 -1211 0
-1152 -1153 0
-1152 -1154 0
-1152 -1155 0
-1152 -1156 0
-1152 -1157 0
-1152 -1158 0
-1152 -1159 0
-1152 -1160 0
-1152 -1161 0
-1152 -1162 0
-1152 -1163 0
-1152 -1164 0
-1152 -1165 0
-1152 -1166 0
-1152 -1167 0
-1152 -1168 0
-1152 -1169 0
-1152 -1170 0
-1152 -1171 0
-1152 -1172 0
-1152 -1173 0
-1152 -1174 0
-1152 -1175 0
-1152 -1176 0
-1152 -1177 0
-1152 -1178 0
-1152 -1179 0
-1152 -1180 0
-1152 -1181 0
-1152 -1182 0
-1152 -1183 0
-1152 -1184 0
-1152 -1185 0
-1152 -1186 0
-1152 -1187 0
-1152 -1188 0
-1152 -1189 0
-1152 -1190 0
-1152 -1191 0
-1152 -1192 0
-1152 -1193 0
-1152 -1194 0
-1152 -1195 0
-1152 -1196 0
-1152 -1197 0
-1152 -1198 0
-1152 -1199 0
-1152 -1200 0
-1152 -1201 0
-1152 -1202 0
-1152 -1203 0
-1152 -1204 0
-1152 -1205 0
-1152 -1206 0
-1152 -1207 0
-1152 -1208 0
-1152 -1209 0
-1152 -1210 0
-1152 -1211 0
-1153 -1154 0
-1153 -1155 0
-1153 -1156 0
-1153 -1157 0
-1153 -1158 0
-1153 -1159 0
-1153 -1160 0
-1153 -1161 0
-1153 -1162 0
-1153 -1163 0
-1153 -1164 0
-1153 -1165 0
-1153 -1166 0
-1153 -1167 0
-1153 -1168 0
-1153 -1169 0
-1153 -1170 0
-1153 -1171 0
-1153 -1172 0
-1153 -1173 0
-1153 -1174 0
-1153 -1175 0
-1153 -1176 0
-1153 -1177 0
-1153 -1178 0
-1153 -1179 0
-1153 -1180 0
-1153 -1181 0
-1153 -1182 0
-1153 -1183 0
-1153 -1184 0
-1153 -1185 0
-1153 -1186 0
-1153 -1187 0
-1153 -1188 0
-1153 -1189 0
-1153 -1190 0
-1153 -1191 0
-1153 -1192 0
-1153 -1193 0
-1153 -1194 0
-1153 -1195 0
-1153 -1196 0
-1153 -1197 0
-1153 -1198 0
-1153 -1199 0
-1153 -1200 0
-1153 -1201 0
-1153 -1202 0
-1153 -1203 0
-1153 -1204 0
-1153 -1205 0
-1153 -1206 0
-1153 -1207 0
-1153 -1208 0
-1153 -1209 0
-1153 -1210 0
-1153 -1211 0
-1154 -1155 0
-1154 -1156 0
-1154 -1157 0
-1154 -1158 0
-1154 -1159 0
-1154 -1160 0
-1154 -1161 0
-1154 -1162 0
-1154 -1163 0
-1154 -1164 0
-1154 -1165 0
-1154 -1166 0
-1154 -1167 0
-1154 -1168 0
-1154 -1169 0
-1154 -1170 0
-1154 -1171 0
-1154 -1172 0
-1154 -1173 0
-1154 -1174 0
-1154 -1175 0
-1154 -1176 0
-1154 -1177 0
-1154 -1178 0
-1154 -1179 0
-1154 -1180 0
-1154 -1181 0
-1154 -1182 0
-1154 -1183 0
-1154 -1184 0
-1154 -1185 0
-1154 -1186 0
-1154 -1187 0
-1154 -1188 0
-1154 -1189 0
-1154 -1190 0
-1154 -1191 0
-1154 -1192 0
-1154 -1193 0
-1154 -1194 0
-1154 -1195 0
-1154 -1196 0
-1154 -1197 0
-1154 -1198 0
-1154 -1199 0
-1154 -1200 0
-1154 -1201 0
-1154 -1202 0
-1154 -1203 0
-1154 -1204 0
-1154 -1205 0
-1154 -1206 0
-1154 -1207 0
-1154 -1208 0
-1154 -1209 0
-1154 -1210 0
-1154 -1211 0
-1155 -1156 0
-1155 -1157 0
-1155 -1158 0
-1155 -1159 0
-1155 -1160 0
-1155 -1161 0
-1155 -1162 0
-1155 -1163 0
-1155 -1164 0
-1155 -1165 0
-1155 -1166 0
-1155 -1167 0
-1155 -1168 0
-1155 -1169 0
-1155 -1170 0
-1155 -1171 0
-1155 -1172 0
-1155 -1173 0
-1155 -1174 0
-1155 -1175 0
-1155 -1176 0
-1155 -1177 0
-1155 -1178 0
-1155 -1179 0
-1155 -1180 0
-1155 -1181 0
-1155 -1182 0
-1155 -1183 0
-1155 -1184 0
-1155 -1185 0
-1155 -1186 0
-1155 -1187 0
-1155 -1188 0
-1155 -1189 0
-1155 -1190 0
-1155 -1191 0
-1155 -1192 0
-1155 -1193 0
-1155 -1194 0
-1155 -1195 0
-1155 -1196 0
-1155 -1197 0
-1155 -1198 0
-1155 -1199 0
-1155 -1200 0
-1155 -1201 0
-1155 -1202 0
-1155 -1203 0
-1155 -1204 0
-1155 -1205 0
-1155 -1206 0
-1155 -1207 0
-1155 -1208 0
-1155 -1209 0
-1155 -1210 0
-1155 -1211 0
-1156 -1157 0
-1156 -1158 0
-1156 -1159 0
-1156 -1160 0
-1156 -1161 0
-1156 -1162 0
-1156 -1163 0
-1156 -1164 0
-1156 -1165 0
-1156 -1166 0
-1156 -1167 0
-1156 -1168 0
-1156 -1169 0
-1156 -1170 0
-1156 -1171 0
-1156 -1172 0
-1156 -1173 0
-1156 -1174 0
-1156 -1175 0
-1156 -1176 0
-1156 -1177 0
-1156 -1178 0
-1156 -1179 0
-1156 -1180 0
-1156 -1181 0
-1156 -1182 0
-1156 -1183 0
-1156 -1184 0
-1156 -1185 0
-1156 -1186 0
-1156 -1187 0
-1156 -1188 0
-1156 -1189 0
-1156 -1190 0
-1156 -1191 0
-1156 -1192 0
-1156 -1193 0
-1156 -1194 0
-1156 -1195 0
-1156 -1196 0
-1156 -1197 0
-1156 -1198 0
-1156 -1199 0
-1156 -1200 0
-1156 -1201 0
-1156 -1202 0
-1156 -1203 0
-1156 -1204 0
-1156 -1205 0
-1156 -1206 0
-1156 -1207 0
-1156 -1208 0
-1156 -1209 0
-1156 -1210 0
-1156 -1211 0
-1157 -1158 0
-1157 -1159 0
-1157 -1160 0
-1157 -1161 0
-1157 -1162 0
-1157 -1163 0
-1157 -1164 0
-1157 -1165 0
-1157 -1166 0
-1157 -1167 0
-1157 -1168 0
-1157 -1169 0
-1157 -1170 0
-1157 -1171 0
-1157 -1172 0
-1157 -1173 0
-1157 -1174 0
-1157 -1175 0
-1157 -1176 0
-1157 -1177 0
-1157 -1178 0
-1157 -1179 0
-1157 -1180 0
-1157 -1181 0
-1157 -1182 0
-1157 -1183 0
-1157 -1184 0
-1157 -1185 0
-1157 -1186 0
-1157 -1187 0
-1157 -1188 0
-1157 -1189 0
-1157 -1190 0
-1157 -1191 0
-1157 -1192 0
-1157 -1193 0
-1157 -1194 0
-1157 -1195 0
-1157 -1196 0
-1157 -1197 0
-1157 -1198 0
-1157 -1199 0
-1157 -1200 0
-1157 -1201 0
-1157 -1202 0
-1157 -1203 0
-1157 -1204 0
-1157 -1205 0
-1157 -1206 0
-1157 -1207 0
-1157 -1208 0
-1157 -1209 0
-1157 -1210 0
-1157 -1211 0
-1158 -1159 0
-1158 -1160 0
-1158 -1161 0
-1158 -1162 0
-1158 -1163 0
-1158 -1164 0
-1158 -1165 0
-1158 -1166 0
-1158 -1167 0
-1158 -1168 0
-1158 -1169 0
-1158 -1170 0
-1158 -1171 0
-1158 -1172 0
-1158 -1173 0
-1158 -1174 0
-1158 -1175 0
-1158 -1176 0
-1158 -1177 0
-1158 -1178 0
-1158 -1179 0
-1158 -1180 0
-1158 -1181 0
-1158 -1182 0
-1158 -1183 0
-1158 -1184 0
-1158 -1185 0
-1158 -1186 0
-1158 -1187 0
-1158 -1188 0
-1158 -1189 0
-1158 -1190 0
-1158 -1191 0
-1158 -1192 0
-1158 -1193 0
-1158 -1194 0
-1158 -1195 0
-1158 -1196 0
-1158 -1197 0
-1158 -1198 0
-1158 -1199 0
-1158 -1200 0
-1158 -1201 0
-1158 -1202 0
-1158 -1203 0
-1158 -1204 0
-1158 -1205 0
-1158 -1206 0
-1158 -1207 0
-1158 -1208 0
-1158 -1209 0
-1158 -1210 0
-1158 -1211 0
-1159 -1160 0
-1159 -1161 0
-1159 -1162 0
-1159 -1163 0
-1159 -1164 0
-1159 -1165 0
-1159 -1166 0
-1159 -1167 0
-1159 -1168 0
-1159 -1169 0
-1159 -1170 0
-1159 -1171 0
-1159 -1172 0
-1159 -1173 0
-1159 -1174 0
-1159 -1175 0
-1159 -1176 0
-1159 -1177 0
-1159 -1178 0
-1159 -1179 0
-1159 -1180 0
-1159 -1181 0
-1159 -1182 0
-1159 -1183 0
-1159 -1184 0
-1159 -1185 0
-1159 -1186 0
-1159 -1187 0
-1159 -1188 0
-1159 -1189 0
-1159 -1190 0
-1159 -1191 0
-1159 -1192 0
-1159 -1193 0
-1159 -1194 0
-1159 -1195 0
-1159 -1196 0
-1159 -1197 0
-1159 -1198 0
-1159 -1199 0
-1159 -1200 0
-1159 -1201 0
-1159 -1202 0
-1159 -1203 0
-1159 -1204 0
-1159 -1205 0
-1159 -1206 0
-1159 -1207 0
-1159 -1208 0
-1159 -1209 0
-1159 -1210 0
-1159 -1211 0
-1160 -1161 0
-1160 -1162 0
-1160 -1163 0
-1160 -1164 0
-1160 -1165 0
-1160 -1166 0
-1160 -1167 0
-1160 -1168 0
-1160 -1169 0
-1160 -1170 0
-1160 -1171 0
-1160 -1172 0
-1160 -1173 0
-1160 -1174 0
-1160 -1175 0
-1160 -1176 0
-1160 -1177 0
-1160 -1178 0
-1160 -1179 0
-1160 -1180 0
-1160 -1181 0
-1160 -1182 0
-1160 -1183 0
-1160 -1184 0
-1160 -1185 0
-1160 -1186 0
-1160 -1187 0
-1160 -1188 0
-1160 -1189 0
-1160 -1190 0
-1160 -1191 0
-1160 -1192 0
-1160 -1193 0
-1160 -1194 0
-1160 -1195 0
-1160 -1196 0
-1160 -1197 0
-1160 -1198 0
-1160 -1199 0
-1160 -1200 0
-1160 -1201 0
-1160 -1202 0
-1160 -1203 0
-1160 -1204 0
-1160 -1205 0
-1160 -1206 0
-1160 -1207 0
-1160 -1208 0
-1160 -1209 0
-1160 -1210 0
-1160 -1211 0
-1161 -1162 0
-1161 -1163 0
-1161 -1164 0
-1161 -1165 0
-1161 -1166 0
-1161 -1167 0
-1161 -1168 0
-1161 -1169 0
-1161 -1170 0
-1161 -1171 0
-1161 -1172 0
-1161 -1173 0
-1161 -1174 0
-1161 -1175 0
-1161 -1176 0
-1161 -1177 0
-1161 -1178 0
-1161 -1179 0
-1161 -1180 0
-1161 -1181 0
-1161 -1182 0
-1161 -1183 0
-1161 -1184 0
-1161 -1185 0
-1161 -1186 0
-1161 -1187 0
-1161 -1188 0
-1161 -1189 0
-1161 -1190 0
-1161 -1191 0
-1161 -1192 0
-1161 -1193 0
-1161 -1194 0
-1161 -1195 0
-1161 -1196 0
-1161 -1197 0
-1161 -1198 0
-1161 -1199 0
-1161 -1200 0
-1161 -1201 0
-1161 -1202 0
-1161 -1203 0
-1161 -1204 0
-1161 -1205 0
-1161 -1206 0
-1161 -1207 0
-1161 -1208 0
-1161 -1209 0
-1161 -1210 0
-1161 -1211 0
-1162 -1163 0
-1162 -1164 0
-1162 -1165 0
-1162 -1166 0
-1162 -1167 0
-1162 -1168 0
-1162 -1169 0
-1162 -1170 0
-1162 -1171 0
-1162 -1172 0
-1162 -1173 0
-1162 -1174 0
-1162 -1175 0
-1162 -1176 0
-1162 -1177 0
-1162 -1178 0
-1162 -1179 0
-1162 -1180 0
-1162 -1181 0
-1162 -1182 0
-1162 -1183 0
-1162 -1184 0
-1162 -1185 0
-1162 -1186 0
-1162 -1187 0
-1162 -1188 0
-1162 -1189 0
-1162 -1190 0
-1162 -1191 0
-1162 -1192 0
-1162 -1193 0
-1162 -1194 0
-1162 -1195 0
-1162 -1196 0
-1162 -1197 0
-1162 -1198 0
-1162 -1199 0
-1162 -1200 0
-1162 -1201 0
-1162 -1202 0
-1162 -1203 0
-1162 -1204 0
-1162 -1205 0
-1162 -1206 0
-1162 -1207 0
-1162 -1208 0
-1162 -1209 0
-1162 -1210 0
-1162 -1211 0
-1163 -1164 0
-1163 -1165 0
-1163 -1166 0
-1163 -1167 0
-1163 -1168 0
-1163 -1169 0
-1163 -1170 0
-1163 -1171 0
-1163 -1172 0
-1163 -1173 0
-1163 -1174 0
-1163 -1175 0
-1163 -1176 0
-1163 -1177 0
-1163 -1178 0
-1163 -1179 0
-1163 -1180 0
-1163 -1181 0
-1163 -1182 0
-1163 -1183 0
-1163 -1184 0
-1163 -1185 0
-1163 -1186 0
-1163 -1187 0
-1163 -1188 0
-1163 -1189 0
-1163 -1190 0
-1163 -1191 0
-1163 -1192 0
-1163 -1193 0
-1163 -1194 0
-1163 -1195 0
-1163 -1196 0
-1163 -1197 0
-1163 -1198 0
-1163 -1199 0
-1163 -1200 0
-1163 -1201 0
-1163 -1202 0
-1163 -1203 0
-1163 -1204 0
-1163 -1205 0
-1163 -1206 0
-1163 -1207 0
-1163 -1208 0
-1163 -1209 0
-1163 -1210 0
-1163 -1211 0
-1164 -1165 0
-1164 -1166 0
-1164 -1167 0
-1164 -1168 0
-1164 -1169 0
-1164 -1170 0
-1164 -1171 0
-1164 -1172 0
-1164 -1173 0
-1164 -1174 0
-1164 -1175 0
-1164 -1176 0
-1164 -1177 0
-1164 -1178 0
-1164 -1179 0
-1164 -1180 0
-1164 -1181 0
-1164 -1182 0
-1164 -1183 0
-1164 -1184 0
-1164 -1185 0
-1164 -1186 0
-1164 -1187 0
-1164 -1188 0
-1164 -1189 0
-1164 -1190 0
-1164 -1191 0
-1164 -1192 0
-1164 -1193 0
-1164 -1194 0
-1164 -1195 0
-1164 -1196 0
-1164 -1197 0
-1164 -1198 0
-1164 -1199 0
-1164 -1200 0
-1164 -1201 0
-1164 -1202 0
-1164 -1203 0
-1164 -1204 0
-1164 -1205 0
-1164 -1206 0
-1164 -1207 0
-1164 -1208 0
-1164 -1209 0
-1164 -1210 0
-1164 -1211 0
-1165 -1166 0
-1165 -1167 0
-1165 -1168 0
-1165 -1169 0
-1165 -1170 0
-1165 -1171 0
-1165 -1172 0
-1165 -1173 0
-1165 -1174 0
-1165 -1175 0
-1165 -1176 0
-1165 -1177 0
-1165 -1178 0
-1165 -1179 0
-1165 -1180 0
-1165 -1181 0
-1165 -1182 0
-1165 -1183 0
-1165 -1184 0
-1165 -1185 0
-1165 -1186 0
-1165 -1187 0
-1165 -1188 0
-1165 -1189 0
-1165 -1190 0
-1165 -1191 0
-1165 -1192 0
-1165 -1193 0
-1165 -1194 0
-1165 -1195 0
-1165 -1196 0
-1165 -1197 0
-1165 -1198 0
-1165 -1199 0
-1165 -1200 0
-1165 -1201 0
-1165 -1202 0
-1165 -1203 0
-1165 -1204 0
-1165 -1205 0
-1165 -1206 0
-1165 -1207 0
-1165 -1208 0
-1165 -1209 0
-1165 -1210 0
-1165 -1211 0
-1166 -1167 0
-1166 -1168 0
-1166 -1169 0
-1166 -1170 0
-1166 -1171 0
-1166 -1172 0
-1166 -1173 0
-1166 -1174 0
-1166 -1175 0
-1166 -1176 0
-1166 -1177 0
-1166 -1178 0
-1166 -1179 0
-1166 -1180 0
-1166 -1181 0
-1166 -1182 0
-1166 -1183 0
-1166 -1184 0
-1166 -1185 0
-1166 -1186 0
-1166 -1187 0
-1166 -1188 0
-1166 -1189 0
-1166 -1190 0
-1166 -1191 0
-1166 -1192 0
-1166 -1193 0
-1166 -1194 0
-1166 -1195 0
-1166 -1196 0
-1166 -1197 0
-1166 -1198 0
-1166 -1199 0
-1166 -1200 0
-1166 -1201 0
-1166 -1202 0
-1166 -1203 0
-1166 -1204 0
-1166 -1205 0
-1166 -1206 0
-1166 -1207 0
-1166 -1208 0
-1166 -1209 0
-1166 -1210 0
-1166 -1211 0
-1167 -1168 0
-1167 -1169 0
-1167 -1170 0
-1167 -1171 0
-1167 -1172 0
-1167 -1173 0
-1167 -1174 0
-1167 -1175 0
-1167 -1176 0
-1167 -1177 0
-1167 -1178 0
-1167 -1179 0
-1167 -1180 0
-1167 -1181 0
-1167 -1182 0
-1167 -1183 0
-1167 -1184 0
-1167 -1185 0
-1167 -1186 0
-1167 -1187 0
-1167 -1188 0
-1167 -1189 0
-1167 -1190 0
-1167 -1191 0
-1167 -1192 0
-1167 -1193 0
-1167 -1194 0
-1167 -1195 0
-1167 -1196 0
-1167 -1197 0
-1167 -1198 0
-1167 -1199 0
-1167 -1200 0
-1167 -1201 0
-1167 -1202 0
-1167 -1203 0
-1167 -1204 0
-1167 -1205 0
-1167 -1206 0
-1167 -1207 0
-1167 -1208 0
-1167 -1209 0
-1167 -1210 0
-1167 -1211 0
-1168 -1169 0
-1168 -1170 0
-1168 -1171 0
-1168 -1172 0
-1168 -1173 0
-1168 -1174 0
-1168 -1175 0
-1168 -1176 0
-1168 -1177 0
-1168 -1178 0
-1168 -1179 0
-1168 -1180 0
-1168 -1181 0
-1168 -1182 0
-1168 -1183 0
-1168 -1184 0
-1168 -1185 0
-1168 -1186 0
-1168 -1187 0
-1168 -1188 0
-1168 -1189 0
-1168 -1190 0
-1168 -1191 0
-1168 -1192 0
-1168 -1193 0
-1168 -1194 0
-1168 -1195 0
-1168 -1196 0
-1168 -1197 0
-1168 -1198 0
-1168 -1199 0
-1168 -1200 0
-1168 -1201 0
-1168 -1202 0
-1168 -1203 0
-1168 -1204 0
-1168 -1205 0
-1168 -1206 0
-1168 -1207 0
-1168 -1208 0
-1168 -1209 0
-1168 -1210 0
-1168 -1211 0
-1169 -1170 0
-1169 -1171 0
-1169 -1172 0
-1169 -1173 0
-1169 -1174 0
-1169 -1175 0
-1169 -1176 0
-1169 -1177 0
-1169 -1178 0
-1169 -1179 0
-1169 -1180 0
-1169 -1181 0
-1169 -1182 0
-1169 -1183 0
-1169 -1184 0
-1169 -1185 0
-1169 -1186 0
-1169 -1187 0
-1169 -1188 0
-1169 -1189 0
-1169 -1190 0
-1169 -1191 0
-1169 -1192 0
-1169 -1193 0
-1169 -1194 0
-1169 -1195 0
-1169 -1196 0
-1169 -1197 0
-1169 -1198 0
-1169 -1199 0
-1169 -1200 0
-1169 -1201 0
-1169 -1202 0
-1169 -1203 0
-1169 -1204 0
-1169 -1205 0
-1169 -1206 0
-1169 -1207 0
-1169 -1208 0
-1169 -1209 0
-1169 -1210 0
-1169 -1211 0
-1170 -1171 0
-1170 -1172 0
-1170 -1173 0
-1170 -1174 0
-1170 -1175 0
-1170 -1176 0
-1170 -1177 0
-1170 -1178 0
-1170 -1179 0
-1170 -1180 0
-1170 -1181 0
-1170 -1182 0
-1170 -1183 0
-1170 -1184 0
-1170 -1185 0
-1170 -1186 0
-1170 -1187 0
-1170 -1188 0
-1170 -1189 0
-1170 -1190 0
-1170 -1191 0
-1170 -1192 0
-1170 -1193 0
-1170 -1194 0
-1170 -1195 0
-1170 -1196 0
-1170 -1197 0
-1170 -1198 0
-1170 -1199 0
-1170 -1200 0
-1170 -1201 0
-1170 -1202 0
-1170 -1203 0
-1170 -1204 0
-1170 -1205 0
-1170 -1206 0
-1170 -1207 0
-1170 -1208 0
-1170 -1209 0
-1170 -1210 0
-1170 -1211 0
-1171 -1172 0
-1171 -1173 0
-1171 -1174 0
-1171 -1175 0
-1171 -1176 0
-1171 -1177 0
-1171 -1178 0
-1171 -1179 0
-1171 -1180 0
-1171 -1181 0
-1171 -1182 0
-1171 -1183 0
-1171 -1184 0
-1171 -1185 0
-1171 -1186 0
-1171 -1187 0
-1171 -1188 0
-1171 -1189 0
-1171 -1190 0
-1171 -1191 0
-1171 -1192 0
-1171 -1193 0
-1171 -1194 0
-1171 -1195 0
-1171 -1196 0
-1171 -1197 0
-1171 -1198 0
-1171 -1199 0
-1171 -1200 0
-1171 -1201 0
-1171 -1202 0
-1171 -1203 0
-1171 -1204 0
-1171 -1205 0
-1171 -1206 0
-1171 -1207 0
-1171 -1208 0
-1171 -1209 0
-1171 -1210 0
-1171 -1211 0
-1172 -1173 0
-1172 -1174 0
-1172 -1175 0
-1172 -1176 0
-1172 -1177 0
-1172 -1178 0
-1172 -1179 0
-1172 -1180 0
-1172 -1181 0
-1172 -1182 0
-1172 -1183 0
-1172 -1184 0
-1172 -1185 0
-1172 -1186 0
-1172 -1187 0
-1172 -1188 0
-1172 -1189 0
-1172 -1190 0
-1172 -1191 0
-1172 -1192 0
-1172 -1193 0
-1172 -1194 0
-1172 -1195 0
-1172 -1196 0
-1172 -1197 0
-1172 -1198 0
-1172 -1199 0
-1172 -1200 0
-1172 -1201 0
-1172 -1202 0
-1172 -1203 0
-1172 -1204 0
-1172 -1205 0
-1172 -1206 0
-1172 -1207 0
-1172 -1208 0
-1172 -1209 0
-1172 -1210 0
-1172 -1211 0
-1173 -1174 0
-1173 -1175 0
-1173 -1176 0
-1173 -1177 0
-1173 -1178 0
-1173 -1179 0
-1173 -1180 0
-1173 -1181 0
-1173 -1182 0
-1173 -1183 0
-1173 -1184 0
-1173 -1185 0
-1173 -1186 0
-1173 -1187 0
-1173 -1188 0
-1173 -1189 0
-1173 -1190 0
-1173 -1191 0
-1173 -1192 0
-1173 -1193 0
-1173 -1194 0
-1173 -1195 0
-1173 -1196 0
-1173 -1197 0
-1173 -1198 0
-1173 -1199 0
-1173 -1200 0
-1173 -1201 0
-1173 -1202 0
-1173 -1203 0
-1173 -1204 0
-1173 -1205 0
-1173 -1206 0
-1173 -1207 0
-1173 -1208 0
-1173 -1209 0
-1173 -1210 0
-1173 -1211 0
-1174 -1175 0
-1174 -1176 0
-1174 -1177 0
-1174 -1178 0
-1174 -1179 0
-1174 -1180 0
-1174 -1181 0
-1174 -1182 0
-1174 -1183 0
-1174 -1184 0
-1174 -1185 0
-1174 -1186 0
-1174 -1187 0
-1174 -1188 0
-1174 -1189 0
-1174 -1190 0
-1174 -1191 0
-1174 -1192 0
-1174 -1193 0
-1174 -1194 0
-1174 -1195 0
-1174 -1196 0
-1174 -1197 0
-1174 -1198 0
-1174 -1199 0
-1174 -1200 0
-1174 -1201 0
-1174 -1202 0
-1174 -1203 0
-1174 -1204 0
-1174 -1205 0
-1174 -1206 0
-1174 -1207 0
-1174 -1208 0
-1174 -1209 0
-1174 -1210 0
-1174 -1211 0
-1175 -1176 0
-1175 -1177 0
-1175 -1178 0
-1175 -1179 0
-1175 -1180 0
-1175 -1181 0
-1175 -1182 0
-1175 -1183 0
-1175 -1184 0
-1175 -1185 0
-1175 -1186 0
-1175 -1187 0
-1175 -1188 0
-1175 -1189 0
-1175 -1190 0
-1175 -1191 0
-1175 -1192 0
-1175 -1193 0
-1175 -1194 0
-1175 -1195 0
-1175 -1196 0
-1175 -1197 0
-1175 -1198 0
-1175 -1199 0
-1175 -1200 0
-1175 -1201 0
-1175 -1202 0
-1175 -1203 0
-1175 -1204 0
-1175 -1205 0
-1175 -1206 0
-1175 -1207 0
-1175 -1208 0
-1175 -1209 0
-1175 -1210 0
-1175 -1211 0
-1176 -1177 0
-1176 -1178 0
-1176 -1179 0
-1176 -1180 0
-1176 -1181 0
-1176 -1182 0
-1176 -1183 0
-1176 -1184 0
-1176 -1185 0
-1176 -1186 0
-1176 -1187 0
-1176 -1188 0
-1176 -1189 0
-1176 -1190 0
-1176 -1191 0
-1176 -1192 0
-1176 -1193 0
-1176 -1194 0
-1176 -1195 0
-1176 -1196 0
-1176 -1197 0
-1176 -1198 0
-1176 -1199 0
-1176 -1200 0
-1176 -1201 0
-1176 -1202 0
-1176 -1203 0
-1176 -1204 0
-1176 -1205 0
-1176 -1206 0
-1176 -1207 0
-1176 -1208 0
-1176 -1209 0
-1176 -1210 0
-1176 -1211 0
-1177 -1178 0
-1177 -1179 0
-1177 -1180 0
-1177 -1181 0
-1177 -1182 0
-1177 -1183 0
-1177 -1184 0
-1177 -1185 0
-1177 -1186 0
-1177 -1187 0
-1177 -1188 0
-1177 -1189 0
-1177 -1190 0
-1177 -1191 0
-1177 -1192 0
-1177 -1193 0
-1177 -1194 0
-1177 -1195 0
-1177 -1196 0
-1177 -1197 0
-1177 -1198 0
-1177 -1199 0
-1177 -1200 0
-1177 -1201 0
-1177 -1202 0
-1177 -1203 0
-1177 -1204 0
-1177 -1205 0
-1177 -1206 0
-1177 -1207 0
-1177 -1208 0
-1177 -1209 0
-1177 -1210 0
-1177 -1211 0
-1178 -1179 0
-1178 -1180 0
-1178 -1181 0
-1178 -1182 0
-1178 -1183 0
-1178 -1184 0
-1178 -1185 0
-1178 -1186 0
-1178 -1187 0
-1178 -1188 0
-1178 -1189 0
-1178 -1190 0
-1178 -1191 0
-1178 -1192 0
-1178 -1193 0
-1178 -1194 0
-1178 -1195 0
-1178 -1196 0
-1178 -1197 0
-1178 -1198 0
-1178 -1199 0
-1178 -1200 0
-1178 -1201 0
-1178 -1202 0
-1178 -1203 0
-1178 -1204 0
-1178 -1205 0
-1178 -1206 0
-1178 -1207 0
-1178 -1208 0
-1178 -1209 0
-1178 -1210 0
-1178 -1211 0
-1179 -1180 0
-1179 -1181 0
-1179 -1182 0
-1179 -1183 0
-1179 -1184 0
-1179 -1185 0
-1179 -1186 0
-1179 -1187 0
-1179 -1188 0
-1179 -1189 0
-1179 -1190 0
-1179 -1191 0
-1179 -1192 0
-1179 -1193 0
-1179 -1194 0
-1179 -1195 0
-1179 -1196 0
-1179 -1197 0
-1179 -1198 0
-1179 -1199 0
-1179 -1200 0
-1179 -1201 0
-1179 -1202 0
-1179 -1203 0
-1179 -1204 0
-1179 -1205 0
-1179 -1206 0
-1179 -1207 0
-1179 -1208 0
-1179 -1209 0
-1179 -1210 0
-1179 -1211 0
-1180 -1181 0
-1180 -1182 0
-1180 -1183 0
-1180 -1184 0
-1180 -1185 0
-1180 -1186 0
-1180 -1187 0
-1180 -1188 0
-1180 -1189 0
-1180 -1190 0
-1180 -1191 0
-1180 -1192 0
-1180 -1193 0
-1180 -1194 0
-1180 -1195 0
-1180 -1196 0
-1180 -1197 0
-1180 -1198 0
-1180 -1199 0
-1180 -1200 0
-1180 -1201 0
-1180 -1202 0
-1180 -1203 0
-1180 -1204 0
-1180 -1205 0
-1180 -1206 0
-1180 -1207 0
-1180 -1208 0
-1180 -1209 0
-1180 -1210 0
-1180 -1211 0
-1181 -1182 0
-1181 -1183 0
-1181 -1184 0
-1181 -1185 0
-1181 -1186 0
-1181 -1187 0
-1181 -1188 0
-1181 -1189 0
-1181 -1190 0
-1181 -1191 0
-1181 -1192 0
-1181 -1193 0
-1181 -1194 0
-1181 -1195 0
-1181 -1196 0
-1181 -1197 0
-1181 -1198 0
-1181 -1199 0
-1181 -1200 0
-1181 -1201 0
-1181 -1202 0
-1181 -1203 0
-1181 -1204 0
-1181 -1205 0
-1181 -1206 0
-1181 -1207 0
-1181 -1208 0
-1181 -1209 0
-1181 -1210 0
-1181 -1211 0
-1182 -1183 0
-1182 -1184 0
-1182 -1185 0
-1182 -1186 0
-1182 -1187 0
-1182 -1188 0
-1182 -1189 0
-1182 -1190 0
-1182 -1191 0
-1182 -1192 0
-1182 -1193 0
-1182 -1194 0
-1182 -1195 0
-1182 -1196 0
-1182 -1197 0
-1182 -1198 0
-1182 -1199 0
-1182 -1200 0
-1182 -1201 0
-1182 -1202 0
-1182 -1203 0
-1182 -1204 0
-1182 -1205 0
-1182 -1206 0
-1182 -1207 0
-1182 -1208 0
-1182 -1209 0
-1182 -1210 0
-1182 -1211 0
-1183 -1184 0
-1183 -1185 0
-1183 -1186 0
-1183 -1187 0
-1183 -1188 0
-1183 -1189 0
-1183 -1190 0
-1183 -1191 0
-1183 -1192 0
-1183 -1193 0
-1183 -1194 0
-1183 -1195 0
-1183 -1196 0
-1183 -1197 0
-1183 -1198 0
-1183 -1199 0
-1183 -1200 0
-1183 -1201 0
-1183 -1202 0
-1183 -1203 0
-1183 -1204 0
-1183 -1205 0
-1183 -1206 0
-1183 -1207 0
-1183 -1208 0
-1183 -1209 0
-1183 -1210 0
-1183 -1211 0
-1184 -1185 0
-1184 -1186 0
-1184 -1187 0
-1184 -1188 0
-1184 -1189 0
-1184 -1190 0
-1184 -1191 0
-1184 -1192 0
-1184 -1193 0
-1184 -1194 0
-1184 -1195 0
-1184 -1196 0
-1184 -1197 0
-1184 -1198 0
-1184 -1199 0
-1184 -1200 0
-1184 -1201 0
-1184 -1202 0
-1184 -1203 0
-1184 -1204 0
-1184 -1205 0
-1184 -1206 0
-1184 -1207 0
-1184 -1208 0
-1184 -1209 0
-1184 -1210 0
-1184 -1211 0
-1185 -1186 0
-1185 -1187 0
-1185 -1188 0
-1185 -1189 0
-1185 -1190 0
-1185 -1191 0
-1185 -1192 0
-1185 -1193 0
-1185 -1194 0
-1185 -1195 0
-1185 -1196 0
-1185 -1197 0
-1185 -1198 0
-1185 -1199 0
-1185 -1200 0
-1185 -1201 0
-1185 -1202 0
-1185 -1203 0
-1185 -1204 0
-1185 -1205 0
-1185 -1206 0
-1185 -1207 0
-1185 -1208 0
-1185 -1209 0
-1185 -1210 0
-1185 -1211 0
-1186 -1187 0
-1186 -1188 0
-1186 -1189 0
-1186 -1190 0
-1186 -1191 0
-1186 -1192 0
-1186 -1193 0
-1186 -1194 0
-1186 -1195 0
-1186 -1196 0
-1186 -1197 0
-1186 -1198 0
-1186 -1199 0
-1186 -1200 0
-1186 -1201 0
-1186 -1202 0
-1186 -1203 0
-1186 -1204 0
-1186 -1205 0
-1186 -1206 0
-1186 -1207 0
-1186 -1208 0
-1186 -1209 0
-1186 -1210 0
-1186 -1211 0
-1187 -1188 0
-1187 -1189 0
-1187 -1190 0
-1187 -1191 0
-1187 -1192 0
-1187 -1193 0
-1187 -1194 0
-1187 -1195 0
-1187 -1196 0
-1187 -1197 0
-1187 -1198 0
-1187 -1199 0
-1187 -1200 0
-1187 -1201 0
-1187 -1202 0
-1187 -1203 0
-1187 -1204 0
-1187 -1205 0
-1187 -1206 0
-1187 -1207 0
-1187 -1208 0
-1187 -1209 0
-1187 -1210 0
-1187 -1211 0
-1188 -1189 0
-1188 -1190 0
-1188 -1191 0
-1188 -1192 0
-1188 -1193 0
-1188 -1194 0
-1188 -1195 0
-1188 -1196 0
-1188 -1197 0
-1188 -1198 0
-1188 -1199 0
-1188 -1200 0
-1188 -1201 0
-1188 -1202 0
-1188 -1203 0
-1188 -1204 0
-1188 -1205 0
-1188 -1206 0
-1188 -1207 0
-1188 -1208 0
-1188 -1209 0
-1188 -1210 0
-1188 -1211 0
-1189 -1190 0
-1189 -1191 0
-1189 -1192 0
-1189 -1193 0
-1189 -1194 0
-1189 -1195 0
-1189 -1196 0
-1189 -1197 0
-1189 -1198 0
-1189 -1199 0
-1189 -1200 0
-1189 -1201 0
-1189 -1202 0
-1189 -1203 0
-1189 -1204 0
-1189 -1205 0
-1189 -1206 0
-1189 -1207 0
-1189 -1208 0
-1189 -1209 0
-1189 -1210 0
-1189 -1211 0
-1190 -1191 0
-1190 -1192 0
-1190 -1193 0
-1190 -1194 0
-1190 -1195 0
-1190 -1196 0
-1190 -1197 0
-1190 -1198 0
-1190 -1199 0
-1190 -1200 0
-1190 -1201 0
-1190 -1202 0
-1190 -1203 0
-1190 -1204 0
-1190 -1205 0
-1190 -1206 0
-1190 -1207 0
-1190 -1208 0
-1190 -1209 0
-1190 -1210 0
-1190 -1211 0
-1191 -1192 0
-1191 -1193 0
-1191 -1194 0
-1191 -1195 0
-1191 -1196 0
-1191 -1197 0
-1191 -1198 0
-1191 -1199 0
-1191 -1200 0
-1191 -1201 0
-1191 -1202 0
-1191 -1203 0
-1191 -1204 0
-1191 -1205 0
-1191 -1206 0
-1191 -1207 0
-1191 -1208 0
-1191 -1209 0
-1191 -1210 0
-1191 -1211 0
-1192 -1193 0
-1192 -1194 0
-1192 -1195 0
-1192 -1196 0
-1192 -1197 0
-1192 -1198 0
-1192 -1199 0
-1192 -1200 0
-1192 -1201 0
-1192 -1202 0
-1192 -1203 0
-1192 -1204 0
-1192 -1205 0
-1192 -1206 0
-1192 -1207 0
-1192 -1208 0
-1192 -1209 0
-1192 -1210 0
-1192 -1211 0
-1193 -1194 0
-1193 -1195 0
-1193 -1196 0
-1193 -1197 0
-1193 -1198 0
-1193 -1199 0
-1193 -1200 0
-1193 -1201 0
-1193 -1202 0
-1193 -1203 0
-1193 -1204 0
-1193 -1205 0
-1193 -1206 0
-1193 -1207 0
-1193 -1208 0
-1193 -1209 0
-1193 -1210 0
-1193 -1211 0
-1194 -1195 0
-1194 -1196 0
-1194 -1197 0
-1194 -1198 0
-1194 -1199 0
-1194 -1200 0
-1194 -1201 0
-1194 -1202 0
-1194 -1203 0
-1194 -1204 0
-1194 -1205 0
-1194 -1206 0
-1194 -1207 0
-1194 -1208 0
-1194 -1209 0
-1194 -1210 0
-1194 -1211 0
-1195 -1196 0
-1195 -1197 0
-1195 -1198 0
-1195 -1199 0
-1195 -1200 0
-1195 -1201 0
-1195 -1202 0
-1195 -1203 0
-1195 -1204 0
-1195 -1205 0
-1195 -1206 0
-1195 -1207 0
-1195 -1208 0
-1195 -1209 0
-1195 -1210 0
-1195 -1211 0
-1196 -1197 0
-1196 -1198 0
-1196 -1199 0
-1196 -1200 0
-1196 -1201 0
-1196 -1202 0
-1196 -1203 0
-1196 -1204 0
-1196 -1205 0
-1196 -1206 0
-1196 -1207 0
-1196 -1208 0
-1196 -1209 0
-1196 -1210 0
-1196 -1211 0
-1197 -1198 0
-1197 -1199 0
-1197 -1200 0
-1197 -1201 0
-1197 -1202 0
-1197 -1203 0
-1197 -1204 0
-1197 -1205 0
-1197 -1206 0
-1197 -1207 0
-1197 -1208 0
-1197 -1209 0
-1197 -1210 0
-1197 -1211 0
-1198 -1199 0
-1198 -1200 0
-1198 -1201 0
-1198 -1202 0
-1198 -1203 0
-1198 -1204 0
-1198 -1205 0
-1198 -1206 0
-1198 -1207 0
-1198 -1208 0
-1198 -1209 0
-1198 -1210 0
-1198 -1211 0
-1199 -1200 0
-1199 -1201 0
-1199 -1202 0
-1199 -1203 0
-1199 -1204 0
-1199 -1205 0
-1199 -1206 0
-1199 -1207 0
-1199 -1208 0
-1199 -1209 0
-1199 -1210 0
-1199 -1211 0
-1200 -1201 0
-1200 -1202 0
-1200 -1203 0
-1200 -1204 0
-1200 -1205 0
-1200 -1206 0
-1200 -1207 0
-1200 -1208 0
-1200 -1209 0
-1200 -1210 0
-1200 -1211 0
-1201 -1202 0
-1201 -1203 0
-1201 -1204 0
-1201 -1205 0
-1201 -1206 0
-1201 -1207 0
-1201 -1208 0
-1201 -1209 0
-1201 -1210 0
-1201 -1211 0
-1202 -1203 0
-1202 -1204 0
-1202 -1205 0
-1202 -1206 0
-1202 -1207 0
-1202 -1208 0
-1202 -1209 0
-1202 -1210 0
-1202 -1211 0
-1203 -1204 0
-1203 -1205 0
-1203 -1206 0
-1203 -1207 0
-1203 -1208 0
-1203 -1209 0
-1203 -1210 0
-1203 -1211 0
-1204 -1205 0
-1204 -1206 0
-1204 -1207 0
-1204 -1208 0
-1204 -1209 0
-1204 -1210 0
-1204 -1211 0
-1205 -1206 0
-1205 -1207 0
-1205 -1208 0
-1205 -1209 0
-1205 -1210 0
-1205 -1211 0
-1206 -1207 0
-1206 -1208 0
-1206 -1209 0
-1206 -1210 0
-1206 -1211 0
-1207 -1208 0
-1207 -1209 0
-1207 -1210 0
-1207 -1211 0
-1208 -1209 0
-1208 -1210 0
-1208 -1211 0
-1209 -1210 0
-1209 -1211 0
-1210 -1211 0
-150 299 1128 1129 1130 1131 1132 1133 1134 1135 1136 1137 1138 1139 1140 1141 1142 1143 1144 1145 1146 1147 1148 1149 1150 1151 0
150 -299 1128 1129 1130 1131 1132 1133 1134 1135 1136 1137 1138 1139 1140 1141 1142 1143 1144 1145 1146 1147 1148 1149 1150 1151 0
-151 300 1128 1129 1130 1131 1132 1133 1134 1135 1136 1137 1138 1139 1140 1141 1142 1143 1144 1145 1146 1147 1148 1149 1150 1151 0
151 -300 1128 1129 1130 1131 1132 1133 1134 1135 1136 1137 1138 1139 1140 1141 1142 1143 1144 1145 1146 1147 1148 1149 1150 1151 0
-152 301 1128 1129 1130 1131 1132 1133 1134 1135 1136 1137 1138 1139 1140 1141 1142 1143 1144 1145 1146 1147 1148 1149 1150 1151 0
152 -301 1128 1129 1130 1131 1132 1133 1134 1135 1136 1137 1138 1139 1140 1141 1142 1143 1144 1145 1146 1147 1148 1149 1150 1151 0
-153 302 1128 1129 1130 1131 1132 1133 1134 1135 1136 1137 1138 1139 1140 1141 1142 1143 1144 1145 1146 1147 1148 1149 1150 1151 0
153 -302 1128 1129 1130 1131 1132 1133 1134 1135 1136 1137 1138 1139 1140 1141 1142 1143 1144 1145 1146 1147 1148 1149 1150 1151 0
-154 303 1128 1129 1130 1131 1132 1133 1134 1135 1136 1137 1138 1139 1140 1141 1142 1143 1144 1145 1146 1147 1148 1149 1150 1151 0
154 -303 1128 1129 1130 1131 1132 1133 1134 1135 1136 1137 1138 1139 1140 1141 1142 1143 1144 1145 1146 1147 1148 1149 1150 1151 0
-155 304 1128 1129 1130 1131 1132 1133 1134 1135 1136 1137 1138 1139 1140 1141 1142 1143 1144 1145 1146 1147 1148 1149 1150 1151 0
155 -304 1128 1129 1130 1131 1132 1133 1134 1135 1136 1137 1138 1139 1140 1141 1142 1143 1144 1145 1146 1147 1148 1149 1150 1151 0
-156 305 1128 1129 1130 1131 1132 1133 1134 1135 1136 1137 1138 1139 1140 1141 1142 1143 1144 1145 1146 1147 1148 1149 1150 1151 0
156 -305 1128 1129 1130 1131 1132 1133 1134 1135 1136 1137 1138 1139 1140 1141 1142 1143 1144 1145 1146 1147 1148 1149 1150 1151 0
-157 306 1128 1129 1130 1131 1132 1133 1134 1135 1136 1137 1138 1139 1140 1141 1142 1143 1144 1145 1146 1147 1148 1149 1150 1151 0
157 -306 1128 1129 1130 1131 1132 1133 1134 1135 1136 1137 1138 1139 1140 1141 1142 1143 1144 1145 1146 1147 1148 1149 1150 1151 0
-158 307 1128 1129 1130 1131 1132 1133 1134 1135 1136 1137 1138 1139 1140 1141 1142 1143 1144 1145 1146 1147 1148 1149 1150 1151 0
158 -307 1128 1129 1130 1131 1132 1133 1134 1135 1136 1137 1138 1139 1140 1141 1142 1143 1144 1145 1146 1147 1148 1149 1150 1151 0
-159 308 1128 1129 1130 1131 1132 1133 1134 1135 1136 1137 1138 1139 1140 1141 1142 1143 1144 1145 1146 1147 1148 1149 1150 1151 0
159 -308 1128 1129 1130 1131 1132 1133 1134 1135 1136 1137 1138 1139 1140 1141 1142 1143 1144 1145 1146 1147 1148 1149 1150 1151 0
-209 358 1152 1153 1154 1155 1156 1157 1158 1159 1160 1161 1162 1163 1164 1165 1166 1167 1168 1169 1170 1171 1172 1173 1174 1175 0
209 -358 1152 1153 1154 1155 1156 1157 1158 1159 1160 1161 1162 1163 1164 1165 1166 1167 1168 1169 1170 1171 1172 1173 1174 1175 0
-210 359 1152 1153 1154 1155 1156 1157 1158 1159 1160 1161 1162 1163 1164 1165 1166 1167 1168 1169 1170 1171 1172 1173 1174 1175 0
210 -359 1152 1153 1154 1155 1156 1157 1158 1159 1160 1161 1162 1163 1164 1165 1166 1167 1168 1169 1170 1171 1172 1173 1174 1175 0
-211 360 1152 1153 1154 1155 1156 1157 1158 1159 1160 1161 1162 1163 1164 1165 1166 1167 1168 1169 1170 1171 1172 1173 1174 1175 0
211 -360 1152 1153 1154 1155 1156 1157 1158 1159 1160 1161 1162 1163 1164 1165 1166 1167 1168 1169 1170 1171 1172 1173 1174 1175 0
-212 361 1152 1153 1154 1155 1156 1157 1158 1159 1160 1161 1162 1163 1164 1165 1166 1167 1168 1169 1170 1171 1172 1173 1174 1175 0
212 -361 1152 1153 1154 1155 1156 1157 1158 1159 1160 1161 1162 1163 1164 1165 1166 1167 1168 1169 1170 1171 1172 1173 1174 1175 0
-213 362 1152 1153 1154 1155 1156 1157 1158 1159 1160 1161 1162 1163 1164 1165 1166 1167 1168 1169 1170 1171 1172 1173 1174 1175 0
213 -362 1152 1153 1154 1155 1156 1157 1158 1159 1160 1161 1162 1163 1164 1165 1166 1167 1168 1169 1170 1171 1172 1173 1174 1175 0
-214 363 1152 1153 1154 1155 1156 1157 1158 1159 1160 1161 1162 1163 1164 1165 1166 1167 1168 1169 1170 1171 1172 1173 1174 1175 0
214 -363 1152 1153 1154 1155 1156 1157 1158 1159 1160 1161 1162 1163 1164 1165 1166 1167 1168 1169 1170 1171 1172 1173 1174 1175 0
-215 364 1152 1153 1154 1155 1156 1157 1158 1159 1160 1161 1162 1163 1164 1165 1166 1167 1168 1169 1170 1171 1172 1173 1174 1175 0
215 -364 1152 1153 1154 1155 1156 1157 1158 1159 1160 1161 1162 1163 1164 1165 1166 1167 1168 1169 1170 1171 1172 1173 1174 1175 0
-216 365 1152 1153 1154 1155 1156 1157 1158 1159 1160 1161 1162 1163 1164 1165 1166 1167 1168 1169 1170 1171 1172 1173 1174 1175 0
216 -365 1152 1153 1154 1155 1156 1157 1158 1159 1160 1161 1162 1163 1164 1165 1166 1167 1168 1169 1170 1171 1172 1173 1174 1175 0
-217 366 1152 1153 1154 1155 1156 1157 1158 1159 1160 1161 1162 1163 1164 1165 1166 1167 1168 1169 1170 1171 1172 1173 1174 1175 0
217 -366 1152 1153 1154 1155 1156 1157 1158 1159 1160 1161 1162 1163 1164 1165 1166 1167 1168 1169 1170 1171 1172 1173 1174 1175 0
-218 367 1152 1153 1154 1155 1156 1157 1158 1159 1160 1161 1162 1163 1164 1165 1166 1167 1168 1169 1170 1171 1172 1173 1174 1175 0
218 -367 1152 1153 1154 1155 1156 1157 1158 1159 1160 1161 1162 1163 1164 1165 1166 1167 1168 1169 1170 1171 1172 1173 1174 1175 0
-244 393 1176 1177 1178 1179 1180 1181 1182 1183 1184 1185 1186 1187 1188 1189 1190 1191 1192 1193 1194 1195 0
244 -393 1176 1177 1178 1179 1180 1181 1182 1183 1184 1185 1186 1187 1188 1189 1190 1191 1192 1193 1194 1195 0
-245 394 1176 1177 1178 1179 1180 1181 1182 1183 1184 1185 1186 1187 1188 1189 1190 1191 1192 1193 1194 1195 0
245 -394 1176 1177 1178 1179 1180 1181 1182 1183 1184 1185 1186 1187 1188 1189 1190 1191 1192 1193 1194 1195 0
-246 395 1176 1177 1178 1179 1180 1181 1182 1183 1184 1185 1186 1187 1188 1189 1190 1191 1192 1193 1194 1195 0
246 -395 1176 1177 1178 1179 1180 1181 1182 1183 1184 1185 1186 1187 1188 1189 1190 1191 1192 1193 1194 1195 0
-247 396 1176 1177 1178 1179 1180 1181 1182 1183 1184 1185 1186 1187 1188 1189 1190 1191 1192 1193 1194 1195 0
247 -396 1176 1177 1178 1179 1180 1181 1182 1183 1184 1185 1186 1187 1188 1189 1190 1191 1192 1193 1194 1195 0
-248 397 1176 1177 1178 1179 1180 1181 1182 1183 1184 1185 1186 1187 1188 1189 1190 1191 1192 1193 1194 1195 0
248 -397 1176 1177 1178 1179 1180 1181 1182 1183 1184 1185 1186 1187 1188 1189 1190 1191 1192 1193 1194 1195 0
-249 398 1176 1177 1178 1179 1180 1181 1182 1183 1184 1185 1186 1187 1188 1189 1190 1191 1192 1193 1194 1195 0
249 -398 1176 1177 1178 1179 1180 1181 1182 1183 1184 1185 1186 1187 1188 1189 1190 1191 1192 1193 1194 1195 0
-250 399 1176 1177 1178 1179 1180 1181 1182 1183 1184 1185 1186 1187 1188 1189 1190 1191 1192 1193 1194 1195 0
250 -399 1176 1177 1178 1179 1180 1181 1182 1183 1184 1185 1186 1187 1188 1189 1190 1191 1192 1193 1194 1195 0
-251 400 1176 1177 1178 1179 1180 1181 1182 1183 1184 1185 1186 1187 1188 1189 1190 1191 1192 1193 1194 1195 0
251 -400 1176 1177 1178 1179 1180 1181 1182 1183 1184 1185 1186 1187 1188 1189 1190 1191 1192 1193 1194 1195 0
-252 401 1176 1177 1178 1179 1180 1181 1182 1183 1184 1185 1186 1187 1188 1189 1190 1191 1192 1193 1194 1195 0
252 -401 1176 1177 1178 1179 1180 1181 1182 1183 1184 1185 1186 1187 1188 1189 1190 1191 1192 1193 1194 1195 0
-274 423 1196 1197 1198 1199 1200 1201 1202 1203 1204 1205 1206 1207 1208 1209 1210 1211 0
274 -423 1196 1197 1198 1199 1200 1201 1202 1203 1204 1205 1206 1207 1208 1209 1210 1211 0
-275 424 1196 1197 1198 1199 1200 1201 1202 1203 1204 1205 1206 1207 1208 1209 1210 1211 0
275 -424 1196 1197 1198 1199 1200 1201 1202 1203 1204 1205 1206 1207 1208 1209 1210 1211 0
-276 425 1196 1197 1198 1199 1200 1201 1202 1203 1204 1205 1206 1207 1208 1209 1210 1211 0
276 -425 1196 1197 1198 1199 1200 1201 1202 1203 1204 1205 1206 1207 1208 1209 1210 1211 0
-277 426 1196 1197 1198 1199 1200 1201 1202 1203 1204 1205 1206 1207 1208 1209 1210 1211 0
277 -426 1196 1197 1198 1199 1200 1201 1202 1203 1204 1205 1206 1207 1208 1209 1210 1211 0
-278 427 1196 1197 1198 1199 1200 1201 1202 1203 1204 1205 1206 1207 1208 1209 1210 1211 0
278 -427 1196 1197 1198 1199 1200 1201 1202 1203 1204 1205 1206 1207 1208 1209 1210 1211 0
-279 428 1196 1197 1198 1199 1200 1201 1202 1203 1204 1205 1206 1207 1208 1209 1210 1211 0
279 -428 1196 1197 1198 1199 1200 1201 1202 1203 1204 1205 1206 1207 1208 1209 1210 1211 0
-280 429 1196 1197 1198 1199 1200 1201 1202 1203 1204 1205 1206 1207 1208 1209 1210 1211 0
280 -429 1196 1197 1198 1199 1200 1201 1202 1203 1204 1205 1206 1207 1208 1209 1210 1211 0
-281 430 1196 1197 1198 1199 1200 1201 1202 1203 1204 1205 1206 1207 1208 1209 1210 1211 0
281 -430 1196 1197 1198 1199 1200 1201 1202 1203 1204 1205 1206 1207 1208 1209 1210 1211 0
-1212 313 0
-1212 448 0
-1212 462 0
-1212 454 0
-1212 -299 -305 0
-1213 313 0
-1213 449 0
-1213 462 0
-1213 454 0
-1213 -300 -305 0
-1214 313 0
-1214 450 0
-1214 462 0
-1214 454 0
-1214 -301 -305 0
-1215 313 0
-1215 451 0
-1215 462 0
-1215 454 0
-1215 -302 -305 0
-1216 313 0
-1216 452 0
-1216 462 0
-1216 454 0
-1216 -303 -305 0
-1217 313 0
-1217 453 0
-1217 462 0
-1217 454 0
-1217 -304 -305 0
-1218 313 0
-1218 448 0
-1218 462 0
-1218 358 0
-1218 -367 0
-1218 -518 0
-1218 -364 455 0
-1218 -364 -299 -306 0
-1218 -365 456 0
-1218 -365 -299 -307 0
-1218 -366 457 0
-1218 -366 -299 -308 0
-1219 313 0
-1219 449 0
-1219 462 0
-1219 359 0
-1219 -367 0
-1219 -518 0
-1219 -364 455 0
-1219 -364 -300 -306 0
-1219 -365 456 0
-1219 -365 -300 -307 0
-1219 -366 457 0
-1219 -366 -300 -308 0
-1220 313 0
-1220 450 0
-1220 462 0
-1220 360 0
-1220 -367 0
-1220 -518 0
-1220 -364 455 0
-1220 -364 -301 -306 0
-1220 -365 456 0
-1220 -365 -301 -307 0
-1220 -366 457 0
-1220 -366 -301 -308 0
-1221 313 0
-1221 451 0
-1221 462 0
-1221 361 0
-1221 -367 0
-1221 -518 0
-1221 -364 455 0
-1221 -364 -302 -306 0
-1221 -365 456 0
-1221 -365 -302 -307 0
-1221 -366 457 0
-1221 -366 -302 -308 0
-1222 313 0
-1222 452 0
-1222 462 0
-1222 362 0
-1222 -367 0
-1222 -518 0
-1222 -364 455 0
-1222 -364 -303 -306 0
-1222 -365 456 0
-1222 -365 -303 -307 0
-1222 -366 457 0
-1222 -366 -303 -308 0
-1223 313 0
-1223 453 0
-1223 462 0
-1223 363 0
-1223 -367 0
-1223 -518 0
-1223 -364 455 0
-1223 -364 -304 -306 0
-1223 -365 456 0
-1223 -365 -304 -307 0
-1223 -366 457 0
-1223 -366 -304 -308 0
-1224 313 0
-1224 448 0
-1224 462 0
-1224 393 0
-1224 -401 0
-1224 -552 0
-1224 -398 455 0
-1224 -398 -299 -306 0
-1224 -399 456 0
-1224 -399 -299 -307 0
-1224 -400 457 0
-1224 -400 -299 -308 0
-1225 313 0
-1225 449 0
-1225 462 0
-1225 393 394 0
-1225 -401 0
-1225 -552 0
-1225 -398 455 0
-1225 -398 -300 -306 0
-1225 -399 456 0
-1225 -399 -300 -307 0
-1225 -400 457 0
-1225 -400 -300 -308 0
-1226 313 0
-1226 450 0
-1226 462 0
-1226 394 395 0
-1226 -401 0
-1226 -552 0
-1226 -398 455 0
-1226 -398 -301 -306 0
-1226 -399 456 0
-1226 -399 -301 -307 0
-1226 -400 457 0
-1226 -400 -301 -308 0
-1227 313 0
-1227 451 0
-1227 462 0
-1227 395 396 0
-1227 -401 0
-1227 -552 0
-1227 -398 455 0
-1227 -398 -302 -306 0
-1227 -399 456 0
-1227 -399 -302 -307 0
-1227 -400 457 0
-1227 -400 -302 -308 0
-1228 313 0
-1228 452 0
-1228 462 0
-1228 396 397 0
-1228 -401 0
-1228 -552 0
-1228 -398 455 0
-1228 -398 -303 -306 0
-1228 -399 456 0
-1228 -399 -303 -307 0
-1228 -400 457 0
-1228 -400 -303 -308 0
-1229 313 0
-1229 453 0
-1229 462 0
-1229 397 0
-1229 -401 0
-1229 -552 0
-1229 -398 455 0
-1229 -398 -304 -306 0
-1229 -399 456 0
-1229 -399 -304 -307 0
-1229 -400 457 0
-1229 -400 -304 -308 0
-1230 313 0
-1230 448 0
-1230 462 0
-1230 423 0
-1230 -430 0
-1230 -581 0
-1230 -427 455 0
-1230 -427 -299 -306 0
-1230 -428 456 0
-1230 -428 -299 -307 0
-1230 -429 457 0
-1230 -429 -299 -308 0
-1231 313 0
-1231 449 0
-1231 462 0
-1231 423 424 0
-1231 -430 0
-1231 -581 0
-1231 -427 455 0
-1231 -427 -300 -306 0
-1231 -428 456 0
-1231 -428 -300 -307 0
-1231 -429 457 0
-1231 -429 -300 -308 0
-1232 313 0
-1232 450 0
-1232 462 0
-1232 423 424 425 0
-1232 -430 0
-1232 -581 0
-1232 -427 455 0
-1232 -427 -301 -306 0
-1232 -428 456 0
-1232 -428 -301 -307 0
-1232 -429 457 0
-1232 -429 -301 -308 0
-1233 313 0
-1233 451 0
-1233 462 0
-1233 424 425 426 0
-1233 -430 0
-1233 -581 0
-1233 -427 455 0
-1233 -427 -302 -306 0
-1233 -428 456 0
-1233 -428 -302 -307 0
-1233 -429 457 0
-1233 -429 -302 -308 0
-1234 313 0
-1234 452 0
-1234 462 0
-1234 425 426 0
-1234 -430 0
-1234 -581 0
-1234 -427 455 0
-1234 -427 -303 -306 0
-1234 -428 456 0
-1234 -428 -303 -307 0
-1234 -429 457 0
-1234 -429 -303 -308 0
-1235 313 0
-1235 453 0
-1235 462 0
-1235 426 0
-1235 -430 0
-1235 -581 0
-1235 -427 455 0
-1235 -427 -304 -306 0
-1235 -428 456 0
-1235 -428 -304 -307 0
-1235 -429 457 0
-1235 -429 -304 -308 0
-1236 369 0
-1236 507 0
-1236 518 0
-1236 513 0
-1236 -358 -364 0
-1237 369 0
-1237 508 0
-1237 518 0
-1237 513 0
-1237 -359 -364 0
-1238 369 0
-1238 509 0
-1238 518 0
-1238 513 0
-1238 -360 -364 0
-1239 369 0
-1239 510 0
-1239 518 0
-1239 513 0
-1239 -361 -364 0
-1240 369 0
-1240 511 0
-1240 518 0
-1240 513 0
-1240 -362 -364 0
-1241 369 0
-1241 512 0
-1241 518 0
-1241 513 0
-1241 -363 -364 0
-1242 369 0
-1242 507 0
-1242 518 0
-1242 299 0
-1242 -308 0
-1242 -462 0
-1242 -305 514 0
-1242 -305 -358 -365 0
-1242 -306 515 0
-1242 -306 -358 -366 0
-1242 -307 516 0
-1242 -307 -358 -367 0
-1243 369 0
-1243 508 0
-1243 518 0
-1243 300 0
-1243 -308 0
-1243 -462 0
-1243 -305 514 0
-1243 -305 -359 -365 0
-1243 -306 515 0
-1243 -306 -359 -366 0
-1243 -307 516 0
-1243 -307 -359 -367 0
-1244 369 0
-1244 509 0
-1244 518 0
-1244 301 0
-1244 -308 0
-1244 -462 0
-1244 -305 514 0
-1244 -305 -360 -365 0
-1244 -306 515 0
-1244 -306 -360 -366 0
-1244 -307 516 0
-1244 -307 -360 -367 0
-1245 369 0
-1245 510 0
-1245 518 0
-1245 302 0
-1245 -308 0
-1245 -462 0
-1245 -305 514 0
-1245 -305 -361 -365 0
-1245 -306 515 0
-1245 -306 -361 -366 0
-1245 -307 516 0
-1245 -307 -361 -367 0
-1246 369 0
-1246 511 0
-1246 518 0
-1246 303 0
-1246 -308 0
-1246 -462 0
-1246 -305 514 0
-1246 -305 -362 -365 0
-1246 -306 515 0
-1246 -306 -362 -366 0
-1246 -307 516 0
-1246 -307 -362 -367 0
-1247 369 0
-1247 512 0
-1247 518 0
-1247 304 0
-1247 -308 0
-1247 -462 0
-1247 -305 514 0
-1247 -305 -363 -365 0
-1247 -306 515 0
-1247 -306 -363 -366 0
-1247 -307 516 0
-1247 -307 -363 -367 0
-1248 369 0
-1248 507 0
-1248 518 0
-1248 393 0
-1248 -401 0
-1248 -552 0
-1248 -398 514 0
-1248 -398 -358 -365 0
-1248 -399 515 0
-1248 -399 -358 -366 0
-1248 -400 516 0
-1248 -400 -358 -367 0
-1249 369 0
-1249 508 0
-1249 518 0
-1249 393 394 0
-1249 -401 0
-1249 -552 0
-1249 -398 514 0
-1249 -398 -359 -365 0
-1249 -399 515 0
-1249 -399 -359 -366 0
-1249 -400 516 0
-1249 -400 -359 -367 0
-1250 369 0
-1250 509 0
-1250 518 0
-1250 394 395 0
-1250 -401 0
-1250 -552 0
-1250 -398 514 0
-1250 -398 -360 -365 0
-1250 -399 515 0
-1250 -399 -360 -366 0
-1250 -400 516 0
-1250 -400 -360 -367 0
-1251 369 0
-1251 510 0
-1251 518 0
-1251 395 396 0
-1251 -401 0
-1251 -552 0
-1251 -398 514 0
-1251 -398 -361 -365 0
-1251 -399 515 0
-1251 -399 -361 -366 0
-1251 -400 516 0
-1251 -400 -361 -367 0
-1252 369 0
-1252 511 0
-1252 518 0
-1252 396 397 0
-1252 -401 0
-1252 -552 0
-1252 -398 514 0
-1252 -398 -362 -365 0
-1252 -399 515 0
-1252 -399 -362 -366 0
-1252 -400 516 0
-1252 -400 -362 -367 0
-1253 369 0
-1253 512 0
-1253 518 0
-1253 397 0
-1253 -401 0
-1253 -552 0
-1253 -398 514 0
-1253 -398 -363 -365 0
-1253 -399 515 0
-1253 -399 -363 -366 0
-1253 -400 516 0
-1253 -400 -363 -367 0
-1254 369 0
-1254 507 0
-1254 518 0
-1254 423 0
-1254 -430 0
-1254 -581 0
-1254 -427 514 0
-1254 -427 -358 -365 0
-1254 -428 515 0
-1254 -428 -358 -366 0
-1254 -429 516 0
-1254 -429 -358 -367 0
-1255 369 0
-1255 508 0
-1255 518 0
-1255 423 424 0
-1255 -430 0
-1255 -581 0
-1255 -427 514 0
-1255 -427 -359 -365 0
-1255 -428 515 0
-1255 -428 -359 -366 0
-1255 -429 516 0
-1255 -429 -359 -367 0
-1256 369 0
-1256 509 0
-1256 518 0
-1256 423 424 425 0
-1256 -430 0
-1256 -581 0
-1256 -427 514 0
-1256 -427 -360 -365 0
-1256 -428 515 0
-1256 -428 -360 -366 0
-1256 -429 516 0
-1256 -429 -360 -367 0
-1257 369 0
-1257 510 0
-1257 518 0
-1257 424 425 426 0
-1257 -430 0
-1257 -581 0
-1257 -427 514 0
-1257 -427 -361 -365 0
-1257 -428 515 0
-1257 -428 -361 -366 0
-1257 -429 516 0
-1257 -429 -361 -367 0
-1258 369 0
-1258 511 0
-1258 518 0
-1258 425 426 0
-1258 -430 0
-1258 -581 0
-1258 -427 514 0
-1258 -427 -362 -365 0
-1258 -428 515 0
-1258 -428 -362 -366 0
-1258 -429 516 0
-1258 -429 -362 -367 0
-1259 369 0
-1259 512 0
-1259 518 0
-1259 426 0
-1259 -430 0
-1259 -581 0
-1259 -427 514 0
-1259 -427 -363 -365 0
-1259 -428 515 0
-1259 -428 -363 -366 0
-1259 -429 516 0
-1259 -429 -363 -367 0
-1260 403 0
-1260 542 0
-1260 552 0
-1260 547 0
-1260 -393 -398 0
-1261 403 0
-1261 543 0
-1261 552 0
-1261 547 0
-1261 -394 -398 0
-1262 403 0
-1262 544 0
-1262 552 0
-1262 547 0
-1262 -395 -398 0
-1263 403 0
-1263 545 0
-1263 552 0
-1263 547 0
-1263 -396 -398 0
-1264 403 0
-1264 546 0
-1264 552 0
-1264 547 0
-1264 -397 -398 0
-1265 403 0
-1265 542 0
-1265 552 0
-1265 299 300 0
-1265 -308 0
-1265 -462 0
-1265 -305 548 0
-1265 -305 -393 -399 0
-1265 -306 549 0
-1265 -306 -393 -400 0
-1265 -307 550 0
-1265 -307 -393 -401 0
-1266 403 0
-1266 543 0
-1266 552 0
-1266 300 301 0
-1266 -308 0
-1266 -462 0
-1266 -305 548 0
-1266 -305 -394 -399 0
-1266 -306 549 0
-1266 -306 -394 -400 0
-1266 -307 550 0
-1266 -307 -394 -401 0
-1267 403 0
-1267 544 0
-1267 552 0
-1267 301 302 0
-1267 -308 0
-1267 -462 0
-1267 -305 548 0
-1267 -305 -395 -399 0
-1267 -306 549 0
-1267 -306 -395 -400 0
-1267 -307 550 0
-1267 -307 -395 -401 0
-1268 403 0
-1268 545 0
-1268 552 0
-1268 302 303 0
-1268 -308 0
-1268 -462 0
-1268 -305 548 0
-1268 -305 -396 -399 0
-1268 -306 549 0
-1268 -306 -396 -400 0
-1268 -307 550 0
-1268 -307 -396 -401 0
-1269 403 0
-1269 546 0
-1269 552 0
-1269 303 304 0
-1269 -308 0
-1269 -462 0
-1269 -305 548 0
-1269 -305 -397 -399 0
-1269 -306 549 0
-1269 -306 -397 -400 0
-1269 -307 550 0
-1269 -307 -397 -401 0
-1270 403 0
-1270 542 0
-1270 552 0
-1270 358 359 0
-1270 -367 0
-1270 -518 0
-1270 -364 548 0
-1270 -364 -393 -399 0
-1270 -365 549 0
-1270 -365 -393 -400 0
-1270 -366 550 0
-1270 -366 -393 -401 0
-1271 403 0
-1271 543 0
-1271 552 0
-1271 359 360 0
-1271 -367 0
-1271 -518 0
-1271 -364 548 0
-1271 -364 -394 -399 0
-1271 -365 549 0
-1271 -365 -394 -400 0
-1271 -366 550 0
-1271 -366 -394 -401 0
-1272 403 0
-1272 544 0
-1272 552 0
-1272 360 361 0
-1272 -367 0
-1272 -518 0
-1272 -364 548 0
-1272 -364 -395 -399 0
-1272 -365 549 0
-1272 -365 -395 -400 0
-1272 -366 550 0
-1272 -366 -395 -401 0
-1273 403 0
-1273 545 0
-1273 552 0
-1273 361 362 0
-1273 -367 0
-1273 -518 0
-1273 -364 548 0
-1273 -364 -396 -399 0
-1273 -365 549 0
-1273 -365 -396 -400 0
-1273 -366 550 0
-1273 -366 -396 -401 0
-1274 403 0
-1274 546 0
-1274 552 0
-1274 362 363 0
-1274 -367 0
-1274 -518 0
-1274 -364 548 0
-1274 -364 -397 -399 0
-1274 -365 549 0
-1274 -365 -397 -400 0
-1274 -366 550 0
-1274 -366 -397 -401 0
-1275 403 0
-1275 542 0
-1275 552 0
-1275 423 424 0
-1275 -430 0
-1275 -581 0
-1275 -427 548 0
-1275 -427 -393 -399 0
-1275 -428 549 0
-1275 -428 -393 -400 0
-1275 -429 550 0
-1275 -429 -393 -401 0
-1276 403 0
-1276 543 0
-1276 552 0
-1276 423 424 425 0
-1276 -430 0
-1276 -581 0
-1276 -427 548 0
-1276 -427 -394 -399 0
-1276 -428 549 0
-1276 -428 -394 -400 0
-1276 -429 550 0
-1276 -429 -394 -401 0
-1277 403 0
-1277 544 0
-1277 552 0
-1277 423 424 425 426 0
-1277 -430 0
-1277 -581 0
-1277 -427 548 0
-1277 -427 -395 -399 0
-1277 -428 549 0
-1277 -428 -395 -400 0
-1277 -429 550 0
-1277 -429 -395 -401 0
-1278 403 0
-1278 545 0
-1278 552 0
-1278 424 425 426 0
-1278 -430 0
-1278 -581 0
-1278 -427 548 0
-1278 -427 -396 -399 0
-1278 -428 549 0
-1278 -428 -396 -400 0
-1278 -429 550 0
-1278 -429 -396 -401 0
-1279 403 0
-1279 546 0
-1279 552 0
-1279 425 426 0
-1279 -430 0
-1279 -581 0
-1279 -427 548 0
-1279 -427 -397 -399 0
-1279 -428 549 0
-1279 -428 -397 -400 0
-1279 -429 550 0
-1279 -429 -397 -401 0
-1280 432 0
-1280 572 0
-1280 581 0
-1280 576 0
-1280 -423 -427 0
-1281 432 0
-1281 573 0
-1281 581 0
-1281 576 0
-1281 -424 -427 0
-1282 432 0
-1282 574 0
-1282 581 0
-1282 576 0
-1282 -425 -427 0
-1283 432 0
-1283 575 0
-1283 581 0
-1283 576 0
-1283 -426 -427 0
-1284 432 0
-1284 572 0
-1284 581 0
-1284 299 300 301 0
-1284 -308 0
-1284 -462 0
-1284 -305 577 0
-1284 -305 -423 -428 0
-1284 -306 578 0
-1284 -306 -423 -429 0
-1284 -307 579 0
-1284 -307 -423 -430 0
-1285 432 0
-1285 573 0
-1285 581 0
-1285 300 301 302 0
-1285 -308 0
-1285 -462 0
-1285 -305 577 0
-1285 -305 -424 -428 0
-1285 -306 578 0
-1285 -306 -424 -429 0
-1285 -307 579 0
-1285 -307 -424 -430 0
-1286 432 0
-1286 574 0
-1286 581 0
-1286 301 302 303 0
-1286 -308 0
-1286 -462 0
-1286 -305 577 0
-1286 -305 -425 -428 0
-1286 -306 578 0
-1286 -306 -425 -429 0
-1286 -307 579 0
-1286 -307 -425 -430 0
-1287 432 0
-1287 575 0
-1287 581 0
-1287 302 303 304 0
-1287 -308 0
-1287 -462 0
-1287 -305 577 0
-1287 -305 -426 -428 0
-1287 -306 578 0
-1287 -306 -426 -429 0
-1287 -307 579 0
-1287 -307 -426 -430 0
-1288 432 0
-1288 572 0
-1288 581 0
-1288 358 359 360 0
-1288 -367 0
-1288 -518 0
-1288 -364 577 0
-1288 -364 -423 -428 0
-1288 -365 578 0
-1288 -365 -423 -429 0
-1288 -366 579 0
-1288 -366 -423 -430 0
-1289 432 0
-1289 573 0
-1289 581 0
-1289 359 360 361 0
-1289 -367 0
-1289 -518 0
-1289 -364 577 0
-1289 -364 -424 -428 0
-1289 -365 578 0
-1289 -365 -424 -429 0
-1289 -366 579 0
-1289 -366 -424 -430 0
-1290 432 0
-1290 574 0
-1290 581 0
-1290 360 361 362 0
-1290 -367 0
-1290 -518 0
-1290 -364 577 0
-1290 -364 -425 -428 0
-1290 -365 578 0
-1290 -365 -425 -429 0
-1290 -366 579 0
-1290 -366 -425 -430 0
-1291 432 0
-1291 575 0
-1291 581 0
-1291 361 362 363 0
-1291 -367 0
-1291 -518 0
-1291 -364 577 0
-1291 -364 -426 -428 0
-1291 -365 578 0
-1291 -365 -426 -429 0
-1291 -366 579 0
-1291 -366 -426 -430 0
-1292 432 0
-1292 572 0
-1292 581 0
-1292 393 394 395 0
-1292 -401 0
-1292 -552 0
-1292 -398 577 0
-1292 -398 -423 -428 0
-1292 -399 578 0
-1292 -399 -423 -429 0
-1292 -400 579 0
-1292 -400 -423 -430 0
-1293 432 0
-1293 573 0
-1293 581 0
-1293 393 394 395 396 0
-1293 -401 0
-1293 -552 0
-1293 -398 577 0
-1293 -398 -424 -428 0
-1293 -399 578 0
-1293 -399 -424 -429 0
-1293 -400 579 0
-1293 -400 -424 -430 0
-1294 432 0
-1294 574 0
-1294 581 0
-1294 394 395 396 397 0
-1294 -401 0
-1294 -552 0
-1294 -398 577 0
-1294 -398 -425 -428 0
-1294 -399 578 0
-1294 -399 -425 -429 0
-1294 -400 579 0
-1294 -400 -425 -430 0
-1295 432 0
-1295 575 0
-1295 581 0
-1295 395 396 397 0
-1295 -401 0
-1295 -552 0
-1295 -398 577 0
-1295 -398 -426 -428 0
-1295 -399 578 0
-1295 -399 -426 -429 0
-1295 -400 579 0
-1295 -400 -426 -430 0
1212 1213 1214 1215 1216 1217 1218 1219 1220 1221 1222 1223 1224 1225 1226 1227 1228 1229 1230 1231 1232 1233 1234 1235 1236 1237 1238 1239 1240 1241 1242 1243 1244 1245 1246 1247 1248 1249 1250 1251 1252 1253 1254 1255 1256 1257 1258 1259 1260 1261 1262 1263 1264 1265 1266 1267 1268 1269 1270 1271 1272 1273 1274 1275 1276 1277 1278 1279 1280 1281 1282 1283 1284 1285 1286 1287 1288 1289 1290 1291 1292 1293 1294 1295 0
-1212 -1213 0
-1212 -1214 0
-1212 -1215 0
-1212 -1216 0
-1212 -1217 0
-1212 -1218 0
-1212 -1219 0
-1212 -1220 0
-1212 -1221 0
-1212 -1222 0
-1212 -1223 0
-1212 -1224 0
-1212 -1225 0
-1212 -1226 0
-1212 -1227 0
-1212 -1228 0
-1212 -1229 0
-1212 -1230 0
-1212 -1231 0
-1212 -1232 0
-1212 -1233 0
-1212 -1234 0
-1212 -1235 0
-1212 -1236 0
-1212 -1237 0
-1212 -1238 0
-1212 -1239 0
-1212 -1240 0
-1212 -1241 0
-1212 -1242 0
-1212 -1243 0
-1212 -1244 0
-1212 -1245 0
-1212 -1246 0
-1212 -1247 0
-1212 -1248 0
-1212 -1249 0
-1212 -1250 0
-1212 -1251 0
-1212 -1252 0
-1212 -1253 0
-1212 -1254 0
-1212 -1255 0
-1212 -1256 0
-1212 -1257 0
-1212 -1258 0
-1212 -1259 0
-1212 -1260 0
-1212 -1261 0
-1212 -1262 0
-1212 -1263 0
-1212 -1264 0
-1212 -1265 0
-1212 -1266 0
-1212 -1267 0
-1212 -1268 0
-1212 -1269 0
-1212 -1270 0
-1212 -1271 0
-1212 -1272 0
-1212 -1273 0
-1212 -1274 0
-1212 -1275 0
-1212 -1276 0
-1212 -1277 0
-1212 -1278 0
-1212 -1279 0
-1212 -1280 0
-1212 -1281 0
-1212 -1282 0
-1212 -1283 0
-1212 -1284 0
-1212 -1285 0
-1212 -1286 0
-1212 -1287 0
-1212 -1288 0
-1212 -1289 0
-1212 -1290 0
-1212 -1291 0
-1212 -1292 0
-1212 -1293 0
-1212 -1294 0
-1212 -1295 0
-1213 -1214 0
-1213 -1215 0
-1213 -1216 0
-1213 -1217 0
-1213 -1218 0
-1213 -1219 0
-1213 -1220 0
-1213 -1221 0
-1213 -1222 0
-1213 -1223 0
-1213 -1224 0
-1213 -1225 0
-1213 -1226 0
-1213 -1227 0
-1213 -1228 0
-1213 -1229 0
-1213 -1230 0
-1213 -1231 0
-1213 -1232 0
-1213 -1233 0
-1213 -1234 0
-1213 -1235 0
-1213 -1236 0
-1213 -1237 0
-1213 -1238 0
-1213 -1239 0
-1213 -1240 0
-1213 -1241 0
-1213 -1242 0
-1213 -1243 0
-1213 -1244 0
-1213 -1245 0
-1213 -1246 0
-1213 -1247 0
-1213 -1248 0
-1213 -1249 0
-1213 -1250 0
-1213 -1251 0
-1213 -1252 0
-1213 -1253 0
-1213 -1254 0
-1213 -1255 0
-1213 -1256 0
-1213 -1257 0
-1213 -1258 0
-1213 -1259 0
-1213 -1260 0
-1213 -1261 0
-1213 -1262 0
-1213 -1263 0
-1213 -1264 0
-1213 -1265 0
-1213 -1266 0
-1213 -1267 0
-1213 -1268 0
-1213 -1269 0
-1213 -1270 0
-1213 -1271 0
-1213 -1272 0
-1213 -1273 0
-1213 -1274 0
-1213 -1275 0
-1213 -1276 0
-1213 -1277 0
-1213 -1278 0
-1213 -1279 0
-1213 -1280 0
-1213 -1281 0
-1213 -1282 0
-1213 -1283 0
-1213 -1284 0
-1213 -1285 0
-1213 -1286 0
-1213 -1287 0
-1213 -1288 0
-1213 -1289 0
-1213 -1290 0
-1213 -1291 0
-1213 -1292 0
-1213 -1293 0
-1213 -1294 0
-1213 -1295 0
-1214 -1215 0
-1214 -1216 0
-1214 -1217 0
-1214 -1218 0
-1214 -1219 0
-1214 -1220 0
-1214 -1221 0
-1214 -1222 0
-1214 -1223 0
-1214 -1224 0
-1214 -1225 0
-1214 -1226 0
-1214 -1227 0
-1214 -1228 0
-1214 -1229 0
-1214 -1230 0
-1214 -1231 0
-1214 -1232 0
-1214 -1233 0
-1214 -1234 0
-1214 -1235 0
-1214 -1236 0
-1214 -1237 0
-1214 -1238 0
-1214 -1239 0
-1214 -1240 0
-1214 -1241 0
-1214 -1242 0
-1214 -1243 0
-1214 -1244 0
-1214 -1245 0
-1214 -1246 0
-1214 -1247 0
-1214 -1248 0
-1214 -1249 0
-1214 -1250 0
-1214 -1251 0
-1214 -1252 0
-1214 -1253 0
-1214 -1254 0
-1214 -1255 0
-1214 -1256 0
-1214 -1257 0
-1214 -1258 0
-1214 -1259 0
-1214 -1260 0
-1214 -1261 0
-1214 -1262 0
-1214 -1263 0
-1214 -1264 0
-1214 -1265 0
-1214 -1266 0
-1214 -1267 0
-1214 -1268 0
-1214 -1269 0
-1214 -1270 0
-1214 -1271 0
-1214 -1272 0
-1214 -1273 0
-1214 -1274 0
-1214 -1275 0
-1214 -1276 0
-1214 -1277 0
-1214 -1278 0
-1214 -1279 0
-1214 -1280 0
-1214 -1281 0
-1214 -1282 0
-1214 -1283 0
-1214 -1284 0
-1214 -1285 0
-1214 -1286 0
-1214 -1287 0
-1214 -1288 0
-1214 -1289 0
-1214 -1290 0
-1214 -1291 0
-1214 -1292 0
-1214 -1293 0
-1214 -1294 0
-1214 -1295 0
-1215 -1216 0
-1215 -1217 0
-1215 -1218 0
-1215 -1219 0
-1215 -1220 0
-1215 -1221 0
-1215 -1222 0
-1215 -1223 0
-1215 -1224 0
-1215 -1225 0
-1215 -1226 0
-1215 -1227 0
-1215 -1228 0
-1215 -1229 0
-1215 -1230 0
-1215 -1231 0
-1215 -1232 0
-1215 -1233 0
-1215 -1234 0
-1215 -1235 0
-1215 -1236 0
-1215 -1237 0
-1215 -1238 0
-1215 -1239 0
-1215 -1240 0
-1215 -1241 0
-1215 -1242 0
-1215 -1243 0
-1215 -1244 0
-1215 -1245 0
-1215 -1246 0
-1215 -1247 0
-1215 -1248 0
-1215 -1249 0
-1215 -1250 0
-1215 -1251 0
-1215 -1252 0
-1215 -1253 0
-1215 -1254 0
-1215 -1255 0
-1215 -1256 0
-1215 -1257 0
-1215 -1258 0
-1215 -1259 0
-1215 -1260 0
-1215 -1261 0
-1215 -1262 0
-1215 -1263 0
-1215 -1264 0
-1215 -1265 0
-1215 -1266 0
-1215 -1267 0
-1215 -1268 0
-1215 -1269 0
-1215 -1270 0
-1215 -1271 0
-1215 -1272 0
-1215 -1273 0
-1215 -1274 0
-1215 -1275 0
-1215 -1276 0
-1215 -1277 0
-1215 -1278 0
-1215 -1279 0
-1215 -1280 0
-1215 -1281 0
-1215 -1282 0
-1215 -1283 0
-1215 -1284 0
-1215 -1285 0
-1215 -1286 0
-1215 -1287 0
-1215 -1288 0
-1215 -1289 0
-1215 -1290 0
-1215 -1291 0
-1215 -1292 0
-1215 -1293 0
-1215 -1294 0
-1215 -1295 0
-1216 -1217 0
-1216 -1218 0
-1216 -1219 0
-1216 -1220 0
-1216 -1221 0
-1216 -1222 0
-1216 -1223 0
-1216 -1224 0
-1216 -1225 0
-1216 -1226 0
-1216 -1227 0
-1216 -1228 0
-1216 -1229 0
-1216 -1230 0
-1216 -1231 0
-1216 -1232 0
-1216 -1233 0
-1216 -1234 0
-1216 -1235 0
-1216 -1236 0
-1216 -1237 0
-1216 -1238 0
-1216 -1239 0
-1216 -1240 0
-1216 -1241 0
-1216 -1242 0
-1216 -1243 0
-1216 -1244 0
-1216 -1245 0
-1216 -1246 0
-1216 -1247 0
-1216 -1248 0
-1216 -1249 0
-1216 -1250 0
-1216 -1251 0
-1216 -1252 0
-1216 -1253 0
-1216 -1254 0
-1216 -1255 0
-1216 -1256 0
-1216 -1257 0
-1216 -1258 0
-1216 -1259 0
-1216 -1260 0
-1216 -1261 0
-1216 -1262 0
-1216 -1263 0
-1216 -1264 0
-1216 -1265 0
-1216 -1266 0
-1216 -1267 0
-1216 -1268 0
-1216 -1269 0
-1216 -1270 0
-1216 -1271 0
-1216 -1272 0
-1216 -1273 0
-1216 -1274 0
-1216 -1275 0
-1216 -1276 0
-1216 -1277 0
-1216 -1278 0
-1216 -1279 0
-1216 -1280 0
-1216 -1281 0
-1216 -1282 0
-1216 -1283 0
-1216 -1284 0
-1216 -1285 0
-1216 -1286 0
-1216 -1287 0
-1216 -1288 0
-1216 -1289 0
-1216 -1290 0
-1216 -1291 0
-1216 -1292 0
-1216 -1293 0
-1216 -1294 0
-1216 -1295 0
-1217 -1218 0
-1217 -1219 0
-1217 -1220 0
-1217 -1221 0
-1217 -1222 0
-1217 -1223 0
-1217 -1224 0
-1217 -1225 0
-1217 -1226 0
-1217 -1227 0
-1217 -1228 0
-1217 -1229 0
-1217 -1230 0
-1217 -1231 0
-1217 -1232 0
-1217 -1233 0
-1217 -1234 0
-1217 -1235 0
-1217 -1236 0
-1217 -1237 0
-1217 -1238 0
-1217 -1239 0
-1217 -1240 0
-1217 -1241 0
-1217 -1242 0
-1217 -1243 0
-1217 -1244 0
-1217 -1245 0
-1217 -1246 0
-1217 -1247 0
-1217 -1248 0
-1217 -1249 0
-1217 -1250 0
-1217 -1251 0
-1217 -1252 0
-1217 -1253 0
-1217 -1254 0
-1217 -1255 0
-1217 -1256 0
-1217 -1257 0
-1217 -1258 0
-1217 -1259 0
-1217 -1260 0
-1217 -1261 0
-1217 -1262 0
-1217 -1263 0
-1217 -1264 0
-1217 -1265 0
-1217 -1266 0
-1217 -1267 0
-1217 -1268 0
-1217 -1269 0
-1217 -1270 0
-1217 -1271 0
-1217 -1272 0
-1217 -1273 0
-1217 -1274 0
-1217 -1275 0
-1217 -1276 0
-1217 -1277 0
-1217 -1278 0
-1217 -1279 0
-1217 -1280 0
-1217 -1281 0
-1217 -1282 0
-1217 -1283 0
-1217 -1284 0
-1217 -1285 0
-1217 -1286 0
-1217 -1287 0
-1217 -1288 0
-1217 -1289 0
-1217 -1290 0
-1217 -1291 0
-1217 -1292 0
-1217 -1293 0
-1217 -1294 0
-1217 -1295 0
-1218 -1219 0
-1218 -1220 0
-1218 -1221 0
-1218 -1222 0
-1218 -1223 0
-1218 -1224 0
-1218 -1225 0
-1218 -1226 0
-1218 -1227 0
-1218 -1228 0
-1218 -1229 0
-1218 -1230 0
-1218 -1231 0
-1218 -1232 0
-1218 -1233 0
-1218 -1234 0
-1218 -1235 0
-1218 -1236 0
-1218 -1237 0
-1218 -1238 0
-1218 -1239 0
-1218 -1240 0
-1218 -1241 0
-1218 -1242 0
-1218 -1243 0
-1218 -1244 0
-1218 -1245 0
-1218 -1246 0
-1218 -1247 0
-1218 -1248 0
-1218 -1249 0
-1218 -1250 0
-1218 -1251 0
-1218 -1252 0
-1218 -1253 0
-1218 -1254 0
-1218 -1255 0
-1218 -1256 0
-1218 -1257 0
-1218 -1258 0
-1218 -1259 0
-1218 -1260 0
-1218 -1261 0
-1218 -1262 0
-1218 -1263 0
-1218 -1264 0
-1218 -1265 0
-1218 -1266 0
-1218 -1267 0
-1218 -1268 0
-1218 -1269 0
-1218 -1270 0
-1218 -1271 0
-1218 -1272 0
-1218 -1273 0
-1218 -1274 0
-1218 -1275 0
-1218 -1276 0
-1218 -1277 0
-1218 -1278 0
-1218 -1279 0
-1218 -1280 0
-1218 -1281 0
-1218 -1282 0
-1218 -1283 0
-1218 -1284 0
-1218 -1285 0
-1218 -1286 0
-1218 -1287 0
-1218 -1288 0
-1218 -1289 0
-1218 -1290 0
-1218 -1291 0
-1218 -1292 0
-1218 -1293 0
-1218 -1294 0
-1218 -1295 0
-1219 -1220 0
-1219 -1221 0
-1219 -1222 0
-1219 -1223 0
-1219 -1224 0
-1219 -1225 0
-1219 -1226 0
-1219 -1227 0
-1219 -1228 0
-1219 -1229 0
-1219 -1230 0
-1219 -1231 0
-1219 -1232 0
-1219 -1233 0
-1219 -1234 0
-1219 -1235 0
-1219 -1236 0
-1219 -1237 0
-1219 -1238 0
-1219 -1239 0
-1219 -1240 0
-1219 -1241 0
-1219 -1242 0
-1219 -1243 0
-1219 -1244 0
-1219 -1245 0
-1219 -1246 0
-1219 -1247 0
-1219 -1248 0
-1219 -1249 0
-1219 -1250 0
-1219 -1251 0
-1219 -1252 0
-1219 -1253 0
-1219 -1254 0
-1219 -1255 0
-1219 -1256 0
-1219 -1257 0
-1219 -1258 0
-1219 -1259 0
-1219 -1260 0
-1219 -1261 0
-1219 -1262 0
-1219 -1263 0
-1219 -1264 0
-1219 -1265 0
-1219 -1266 0
-1219 -1267 0
-1219 -1268 0
-1219 -1269 0
-1219 -1270 0
-1219 -1271 0
-1219 -1272 0
-1219 -1273 0
-1219 -1274 0
-1219 -1275 0
-1219 -1276 0
-1219 -1277 0
-1219 -1278 0
-1219 -1279 0
-1219 -1280 0
-1219 -1281 0
-1219 -1282 0
-1219 -1283 0
-1219 -1284 0
-1219 -1285 0
-1219 -1286 0
-1219 -1287 0
-1219 -1288 0
-1219 -1289 0
-1219 -1290 0
-1219 -1291 0
-1219 -1292 0
-1219 -1293 0
-1219 -1294 0
-1219 -1295 0
-1220 -1221 0
-1220 -1222 0
-1220 -1223 0
-1220 -1224 0
-1220 -1225 0
-1220 -1226 0
-1220 -1227 0
-1220 -1228 0
-1220 -1229 0
-1220 -1230 0
-1220 -1231 0
-1220 -1232 0
-1220 -1233 0
-1220 -1234 0
-1220 -1235 0
-1220 -1236 0
-1220 -1237 0
-1220 -1238 0
-1220 -1239 0
-1220 -1240 0
-1220 -1241 0
-1220 -1242 0
-1220 -1243 0
-1220 -1244 0
-1220 -1245 0
-1220 -1246 0
-1220 -1247 0
-1220 -1248 0
-1220 -1249 0
-1220 -1250 0
-1220 -1251 0
-1220 -1252 0
-1220 -1253 0
-1220 -1254 0
-1220 -1255 0
-1220 -1256 0
-1220 -1257 0
-1220 -1258 0
-1220 -1259 0
-1220 -1260 0
-1220 -1261 0
-1220 -1262 0
-1220 -1263 0
-1220 -1264 0
-1220 -1265 0
-1220 -1266 0
-1220 -1267 0
-1220 -1268 0
-1220 -1269 0
-1220 -1270 0
-1220 -1271 0
-1220 -1272 0
-1220 -1273 0
-1220 -1274 0
-1220 -1275 0
-1220 -1276 0
-1220 -1277 0
-1220 -1278 0
-1220 -1279 0
-1220 -1280 0
-1220 -1281 0
-1220 -1282 0
-1220 -1283 0
-1220 -1284 0
-1220 -1285 0
-1220 -1286 0
-1220 -1287 0
-1220 -1288 0
-1220 -1289 0
-1220 -1290 0
-1220 -1291 0
-1220 -1292 0
-1220 -1293 0
-1220 -1294 0
-1220 -1295 0
-1221 -1222 0
-1221 -1223 0
-1221 -1224 0
-1221 -1225 0
-1221 -1226 0
-1221 -1227 0
-1221 -1228 0
-1221 -1229 0
-1221 -1230 0
-1221 -1231 0
-1221 -1232 0
-1221 -1233 0
-1221 -1234 0
-1221 -1235 0
-1221 -1236 0
-1221 -1237 0
-1221 -1238 0
-1221 -1239 0
-1221 -1240 0
-1221 -1241 0
-1221 -1242 0
-1221 -1243 0
-1221 -1244 0
-1221 -1245 0
-1221 -1246 0
-1221 -1247 0
-1221 -1248 0
-1221 -1249 0
-1221 -1250 0
-1221 -1251 0
-1221 -1252 0
-1221 -1253 0
-1221 -1254 0
-1221 -1255 0
-1221 -1256 0
-1221 -1257 0
-1221 -1258 0
-1221 -1259 0
-1221 -1260 0
-1221 -1261 0
-1221 -1262 0
-1221 -1263 0
-1221 -1264 0
-1221 -1265 0
-1221 -1266 0
-1221 -1267 0
-1221 -1268 0
-1221 -1269 0
-1221 -1270 0
-1221 -1271 0
-1221 -1272 0
-1221 -1273 0
-1221 -1274 0
-1221 -1275 0
-1221 -1276 0
-1221 -1277 0
-1221 -1278 0
-1221 -1279 0
-1221 -1280 0
-1221 -1281 0
-1221 -1282 0
-1221 -1283 0
-1221 -1284 0
-1221 -1285 0
-1221 -1286 0
-1221 -1287 0
-1221 -1288 0
-1221 -1289 0
-1221 -1290 0
-1221 -1291 0
-1221 -1292 0
-1221 -1293 0
-1221 -1294 0
-1221 -1295 0
-1222 -1223 0
-1222 -1224 0
-1222 -1225 0
-1222 -1226 0
-1222 -1227 0
-1222 -1228 0
-1222 -1229 0
-1222 -1230 0
-1222 -1231 0
-1222 -1232 0
-1222 -1233 0
-1222 -1234 0
-1222 -1235 0
-1222 -1236 0
-1222 -1237 0
-1222 -1238 0
-1222 -1239 0
-1222 -1240 0
-1222 -1241 0
-1222 -1242 0
-1222 -1243 0
-1222 -1244 0
-1222 -1245 0
-1222 -1246 0
-1222 -1247 0
-1222 -1248 0
-1222 -1249 0
-1222 -1250 0
-1222 -1251 0
-1222 -1252 0
-1222 -1253 0
-1222 -1254 0
-1222 -1255 0
-1222 -1256 0
-1222 -1257 0
-1222 -1258 0
-1222 -1259 0
-1222 -1260 0
-1222 -1261 0
-1222 -1262 0
-1222 -1263 0
-1222 -1264 0
-1222 -1265 0
-1222 -1266 0
-1222 -1267 0
-1222 -1268 0
-1222 -1269 0
-1222 -1270 0
-1222 -1271 0
-1222 -1272 0
-1222 -1273 0
-1222 -1274 0
-1222 -1275 0
-1222 -1276 0
-1222 -1277 0
-1222 -1278 0
-1222 -1279 0
-1222 -1280 0
-1222 -1281 0
-1222 -1282 0
-1222 -1283 0
-1222 -1284 0
-1222 -1285 0
-1222 -1286 0
-1222 -1287 0
-1222 -1288 0
-1222 -1289 0
-1222 -1290 0
-1222 -1291 0
-1222 -1292 0
-1222 -1293 0
-1222 -1294 0
-1222 -1295 0
-1223 -1224 0
-1223 -1225 0
-1223 -1226 0
-1223 -1227 0
-1223 -1228 0
-1223 -1229 0
-1223 -1230 0
-1223 -1231 0
-1223 -1232 0
-1223 -1233 0
-1223 -1234 0
-1223 -1235 0
-1223 -1236 0
-1223 -1237 0
-1223 -1238 0
-1223 -1239 0
-1223 -1240 0
-1223 -1241 0
-1223 -1242 0
-1223 -1243 0
-1223 -1244 0
-1223 -1245 0
-1223 -1246 0
-1223 -1247 0
-1223 -1248 0
-1223 -1249 0
-1223 -1250 0
-1223 -1251 0
-1223 -1252 0
-1223 -1253 0
-1223 -1254 0
-1223 -1255 0
-1223 -1256 0
-1223 -1257 0
-1223 -1258 0
-1223 -1259 0
-1223 -1260 0
-1223 -1261 0
-1223 -1262 0
-1223 -1263 0
-1223 -1264 0
-1223 -1265 0
-1223 -1266 0
-1223 -1267 0
-1223 -1268 0
-1223 -1269 0
-1223 -1270 0
-1223 -1271 0
-1223 -1272 0
-1223 -1273 0
-1223 -1274 0
-1223 -1275 0
-1223 -1276 0
-1223 -1277 0
-1223 -1278 0
-1223 -1279 0
-1223 -1280 0
-1223 -1281 0
-1223 -1282 0
-1223 -1283 0
-1223 -1284 0
-1223 -1285 0
-1223 -1286 0
-1223 -1287 0
-1223 -1288 0
-1223 -1289 0
-1223 -1290 0
-1223 -1291 0
-1223 -1292 0
-1223 -1293 0
-1223 -1294 0
-1223 -1295 0
-1224 -1225 0
-1224 -1226 0
-1224 -1227 0
-1224 -1228 0
-1224 -1229 0
-1224 -1230 0
-1224 -1231 0
-1224 -1232 0
-1224 -1233 0
-1224 -1234 0
-1224 -1235 0
-1224 -1236 0
-1224 -1237 0
-1224 -1238 0
-1224 -1239 0
-1224 -1240 0
-1224 -1241 0
-1224 -1242 0
-1224 -1243 0
-1224 -1244 0
-1224 -1245 0
-1224 -1246 0
-1224 -1247 0
-1224 -1248 0
-1224 -1249 0
-1224 -1250 0
-1224 -1251 0
-1224 -1252 0
-1224 -1253 0
-1224 -1254 0
-1224 -1255 0
-1224 -1256 0
-1224 -1257 0
-1224 -1258 0
-1224 -1259 0
-1224 -1260 0
-1224 -1261 0
-1224 -1262 0
-1224 -1263 0
-1224 -1264 0
-1224 -1265 0
-1224 -1266 0
-1224 -1267 0
-1224 -1268 0
-1224 -1269 0
-1224 -1270 0
-1224 -1271 0
-1224 -1272 0
-1224 -1273 0
-1224 -1274 0
-1224 -1275 0
-1224 -1276 0
-1224 -1277 0
-1224 -1278 0
-1224 -1279 0
-1224 -1280 0
-1224 -1281 0
-1224 -1282 0
-1224 -1283 0
-1224 -1284 0
-1224 -1285 0
-1224 -1286 0
-1224 -1287 0
-1224 -1288 0
-1224 -1289 0
-1224 -1290 0
-1224 -1291 0
-1224 -1292 0
-1224 -1293 0
-1224 -1294 0
-1224 -1295 0
-1225 -1226 0
-1225 -1227 0
-1225 -1228 0
-1225 -1229 0
-1225 -1230 0
-1225 -1231 0
-1225 -1232 0
-1225 -1233 0
-1225 -1234 0
-1225 -1235 0
-1225 -1236 0
-1225 -1237 0
-1225 -1238 0
-1225 -1239 0
-1225 -1240 0
-1225 -1241 0
-1225 -1242 0
-1225 -1243 0
-1225 -1244 0
-1225 -1245 0
-1225 -1246 0
-1225 -1247 0
-1225 -1248 0
-1225 -1249 0
-1225 -1250 0
-1225 -1251 0
-1225 -1252 0
-1225 -1253 0
-1225 -1254 0
-1225 -1255 0
-1225 -1256 0
-1225 -1257 0
-1225 -1258 0
-1225 -1259 0
-1225 -1260 0
-1225 -1261 0
-1225 -1262 0
-1225 -1263 0
-1225 -1264 0
-1225 -1265 0
-1225 -1266 0
-1225 -1267 0
-1225 -1268 0
-1225 -1269 0
-1225 -1270 0
-1225 -1271 0
-1225 -1272 0
-1225 -1273 0
-1225 -1274 0
-1225 -1275 0
-1225 -1276 0
-1225 -1277 0
-1225 -1278 0
-1225 -1279 0
-1225 -1280 0
-1225 -1281 0
-1225 -1282 0
-1225 -1283 0
-1225 -1284 0
-1225 -1285 0
-1225 -1286 0
-1225 -1287 0
-1225 -1288 0
-1225 -1289 0
-1225 -1290 0
-1225 -1291 0
-1225 -1292 0
-1225 -1293 0
-1225 -1294 0
-1225 -1295 0
-1226 -1227 0
-1226 -1228 0
-1226 -1229 0
-1226 -1230 0
-1226 -1231 0
-1226 -1232 0
-1226 -1233 0
-1226 -1234 0
-1226 -1235 0
-1226 -1236 0
-1226 -1237 0
-1226 -1238 0
-1226 -1239 0
-1226 -1240 0
-1226 -1241 0
-1226 -1242 0
-1226 -1243 0
-1226 -1244 0
-1226 -1245 0
-1226 -1246 0
-1226 -1247 0
-1226 -1248 0
-1226 -1249 0
-1226 -1250 0
-1226 -1251 0
-1226 -1252 0
-1226 -1253 0
-1226 -1254 0
-1226 -1255 0
-1226 -1256 0
-1226 -1257 0
-1226 -1258 0
-1226 -1259 0
-1226 -1260 0
-1226 -1261 0
-1226 -1262 0
-1226 -1263 0
-1226 -1264 0
-1226 -1265 0
-1226 -1266 0
-1226 -1267 0
-1226 -1268 0
-1226 -1269 0
-1226 -1270 0
-1226 -1271 0
-1226 -1272 0
-1226 -1273 0
-1226 -1274 0
-1226 -1275 0
-1226 -1276 0
-1226 -1277 0
-1226 -1278 0
-1226 -1279 0
-1226 -1280 0
-1226 -1281 0
-1226 -1282 0
-1226 -1283 0
-1226 -1284 0
-1226 -1285 0
-1226 -1286 0
-1226 -1287 0
-1226 -1288 0
-1226 -1289 0
-1226 -1290 0
-1226 -1291 0
-1226 -1292 0
-1226 -1293 0
-1226 -1294 0
-1226 -1295 0
-1227 -1228 0
-1227 -1229 0
-1227 -1230 0
-1227 -1231 0
-1227 -1232 0
-1227 -1233 0
-1227 -1234 0
-1227 -1235 0
-1227 -1236 0
-1227 -1237 0
-1227 -1238 0
-1227 -1239 0
-1227 -1240 0
-1227 -1241 0
-1227 -1242 0
-1227 -1243 0
-1227 -1244 0
-1227 -1245 0
-1227 -1246 0
-1227 -1247 0
-1227 -1248 0
-1227 -1249 0
-1227 -1250 0
-1227 -1251 0
-1227 -1252 0
-1227 -1253 0
-1227 -1254 0
-1227 -1255 0
-1227 -1256 0
-1227 -1257 0
-1227 -1258 0
-1227 -1259 0
-1227 -1260 0
-1227 -1261 0
-1227 -1262 0
-1227 -1263 0
-1227 -1264 0
-1227 -1265 0
-1227 -1266 0
-1227 -1267 0
-1227 -1268 0
-1227 -1269 0
-1227 -1270 0
-1227 -1271 0
-1227 -1272 0
-1227 -1273 0
-1227 -1274 0
-1227 -1275 0
-1227 -1276 0
-1227 -1277 0
-1227 -1278 0
-1227 -1279 0
-1227 -1280 0
-1227 -1281 0
-1227 -1282 0
-1227 -1283 0
-1227 -1284 0
-1227 -1285 0
-1227 -1286 0
-1227 -1287 0
-1227 -1288 0
-1227 -1289 0
-1227 -1290 0
-1227 -1291 0
-1227 -1292 0
-1227 -1293 0
-1227 -1294 0
-1227 -1295 0
-1228 -1229 0
-1228 -1230 0
-1228 -1231 0
-1228 -1232 0
-1228 -1233 0
-1228 -1234 0
-1228 -1235 0
-1228 -1236 0
-1228 -1237 0
-1228 -1238 0
-1228 -1239 0
-1228 -1240 0
-1228 -1241 0
-1228 -1242 0
-1228 -1243 0
-1228 -1244 0
-1228 -1245 0
-1228 -1246 0
-1228 -1247 0
-1228 -1248 0
-1228 -1249 0
-1228 -1250 0
-1228 -1251 0
-1228 -1252 0
-1228 -1253 0
-1228 -1254 0
-1228 -1255 0
-1228 -1256 0
-1228 -1257 0
-1228 -1258 0
-1228 -1259 0
-1228 -1260 0
-1228 -1261 0
-1228 -1262 0
-1228 -1263 0
-1228 -1264 0
-1228 -1265 0
-1228 -1266 0
-1228 -1267 0
-1228 -1268 0
-1228 -1269 0
-1228 -1270 0
-1228 -1271 0
-1228 -1272 0
-1228 -1273 0
-1228 -1274 0
-1228 -1275 0
-1228 -1276 0
-1228 -1277 0
-1228 -1278 0
-1228 -1279 0
-1228 -1280 0
-1228 -1281 0
-1228 -1282 0
-1228 -1283 0
-1228 -1284 0
-1228 -1285 0
-1228 -1286 0
-1228 -1287 0
-1228 -1288 0
-1228 -1289 0
-1228 -1290 0
-1228 -1291 0
-1228 -1292 0
-1228 -1293 0
-1228 -1294 0
-1228 -1295 0
-1229 -1230 0
-1229 -1231 0
-1229 -1232 0
-1229 -1233 0
-1229 -1234 0
-1229 -1235 0
-1229 -1236 0
-1229 -1237 0
-1229 -1238 0
-1229 -1239 0
-1229 -1240 0
-1229 -1241 0
-1229 -1242 0
-1229 -1243 0
-1229 -1244 0
-1229 -1245 0
-1229 -1246 0
-1229 -1247 0
-1229 -1248 0
-1229 -1249 0
-1229 -1250 0
-1229 -1251 0
-1229 -1252 0
-1229 -1253 0
-1229 -1254 0
-1229 -1255 0
-1229 -1256 0
-1229 -1257 0
-1229 -1258 0
-1229 -1259 0
-1229 -1260 0
-1229 -1261 0
-1229 -1262 0
-1229 -1263 0
-1229 -1264 0
-1229 -1265 0
-1229 -1266 0
-1229 -1267 0
-1229 -1268 0
-1229 -1269 0
-1229 -1270 0
-1229 -1271 0
-1229 -1272 0
-1229 -1273 0
-1229 -1274 0
-1229 -1275 0
-1229 -1276 0
-1229 -1277 0
-1229 -1278 0
-1229 -1279 0
-1229 -1280 0
-1229 -1281 0
-1229 -1282 0
-1229 -1283 0
-1229 -1284 0
-1229 -1285 0
-1229 -1286 0
-1229 -1287 0
-1229 -1288 0
-1229 -1289 0
-1229 -1290 0
-1229 -1291 0
-1229 -1292 0
-1229 -1293 0
-1229 -1294 0
-1229 -1295 0
-1230 -1231 0
-1230 -1232 0
-1230 -1233 0
-1230 -1234 0
-1230 -1235 0
-1230 -1236 0
-1230 -1237 0
-1230 -1238 0
-1230 -1239 0
-1230 -1240 0
-1230 -1241 0
-1230 -1242 0
-1230 -1243 0
-1230 -1244 0
-1230 -1245 0
-1230 -1246 0
-1230 -1247 0
-1230 -1248 0
-1230 -1249 0
-1230 -1250 0
-1230 -1251 0
-1230 -1252 0
-1230 -1253 0
-1230 -1254 0
-1230 -1255 0
-1230 -1256 0
-1230 -1257 0
-1230 -1258 0
-1230 -1259 0
-1230 -1260 0
-1230 -1261 0
-1230 -1262 0
-1230 -1263 0
-1230 -1264 0
-1230 -1265 0
-1230 -1266 0
-1230 -1267 0
-1230 -1268 0
-1230 -1269 0
-1230 -1270 0
-1230 -1271 0
-1230 -1272 0
-1230 -1273 0
-1230 -1274 0
-1230 -1275 0
-1230 -1276 0
-1230 -1277 0
-1230 -1278 0
-1230 -1279 0
-1230 -1280 0
-1230 -1281 0
-1230 -1282 0
-1230 -1283 0
-1230 -1284 0
-1230 -1285 0
-1230 -1286 0
-1230 -1287 0
-1230 -1288 0
-1230 -1289 0
-1230 -1290 0
-1230 -1291 0
-1230 -1292 0
-1230 -1293 0
-1230 -1294 0
-1230 -1295 0
-1231 -1232 0
-1231 -1233 0
-1231 -1234 0
-1231 -1235 0
-1231 -1236 0
-1231 -1237 0
-1231 -1238 0
-1231 -1239 0
-1231 -1240 0
-1231 -1241 0
-1231 -1242 0
-1231 -1243 0
-1231 -1244 0
-1231 -1245 0
-1231 -1246 0
-1231 -1247 0
-1231 -1248 0
-1231 -1249 0
-1231 -1250 0
-1231 -1251 0
-1231 -1252 0
-1231 -1253 0
-1231 -1254 0
-1231 -1255 0
-1231 -1256 0
-1231 -1257 0
-1231 -1258 0
-1231 -1259 0
-1231 -1260 0
-1231 -1261 0
-1231 -1262 0
-1231 -1263 0
-1231 -1264 0
-1231 -1265 0
-1231 -1266 0
-1231 -1267 0
-1231 -1268 0
-1231 -1269 0
-1231 -1270 0
-1231 -1271 0
-1231 -1272 0
-1231 -1273 0
-1231 -1274 0
-1231 -1275 0
-1231 -1276 0
-1231 -1277 0
-1231 -1278 0
-1231 -1279 0
-1231 -1280 0
-1231 -1281 0
-1231 -1282 0
-1231 -1283 0
-1231 -1284 0
-1231 -1285 0
-1231 -1286 0
-1231 -1287 0
-1231 -1288 0
-1231 -1289 0
-1231 -1290 0
-1231 -1291 0
-1231 -1292 0
-1231 -1293 0
-1231 -1294 0
-1231 -1295 0
-1232 -1233 0
-1232 -1234 0
-1232 -1235 0
-1232 -1236 0
-1232 -1237 0
-1232 -1238 0
-1232 -1239 0
-1232 -1240 0
-1232 -1241 0
-1232 -1242 0
-1232 -1243 0
-1232 -1244 0
-1232 -1245 0
-1232 -1246 0
-1232 -1247 0
-1232 -1248 0
-1232 -1249 0
-1232 -1250 0
-1232 -1251 0
-1232 -1252 0
-1232 -1253 0
-1232 -1254 0
-1232 -1255 0
-1232 -1256 0
-1232 -1257 0
-1232 -1258 0
-1232 -1259 0
-1232 -1260 0
-1232 -1261 0
-1232 -1262 0
-1232 -1263 0
-1232 -1264 0
-1232 -1265 0
-1232 -1266 0
-1232 -1267 0
-1232 -1268 0
-1232 -1269 0
-1232 -1270 0
-1232 -1271 0
-1232 -1272 0
-1232 -1273 0
-1232 -1274 0
-1232 -1275 0
-1232 -1276 0
-1232 -1277 0
-1232 -1278 0
-1232 -1279 0
-1232 -1280 0
-1232 -1281 0
-1232 -1282 0
-1232 -1283 0
-1232 -1284 0
-1232 -1285 0
-1232 -1286 0
-1232 -1287 0
-1232 -1288 0
-1232 -1289 0
-1232 -1290 0
-1232 -1291 0
-1232 -1292 0
-1232 -1293 0
-1232 -1294 0
-1232 -1295 0
-1233 -1234 0
-1233 -1235 0
-1233 -1236 0
-1233 -1237 0
-1233 -1238 0
-1233 -1239 0
-1233 -1240 0
-1233 -1241 0
-1233 -1242 0
-1233 -1243 0
-1233 -1244 0
-1233 -1245 0
-1233 -1246 0
-1233 -1247 0
-1233 -1248 0
-1233 -1249 0
-1233 -1250 0
-1233 -1251 0
-1233 -1252 0
-1233 -1253 0
-1233 -1254 0
-1233 -1255 0
-1233 -1256 0
-1233 -1257 0
-1233 -1258 0
-1233 -1259 0
-1233 -1260 0
-1233 -1261 0
-1233 -1262 0
-1233 -1263 0
-1233 -1264 0
-1233 -1265 0
-1233 -1266 0
-1233 -1267 0
-1233 -1268 0
-1233 -1269 0
-1233 -1270 0
-1233 -1271 0
-1233 -1272 0
-1233 -1273 0
-1233 -1274 0
-1233 -1275 0
-1233 -1276 0
-1233 -1277 0
-1233 -1278 0
-1233 -1279 0
-1233 -1280 0
-1233 -1281 0
-1233 -1282 0
-1233 -1283 0
-1233 -1284 0
-1233 -1285 0
-1233 -1286 0
-1233 -1287 0
-1233 -1288 0
-1233 -1289 0
-1233 -1290 0
-1233 -1291 0
-1233 -1292 0
-1233 -1293 0
-1233 -1294 0
-1233 -1295 0
-1234 -1235 0
-1234 -1236 0
-1234 -1237 0
-1234 -1238 0
-1234 -1239 0
-1234 -1240 0
-1234 -1241 0
-1234 -1242 0
-1234 -1243 0
-1234 -1244 0
-1234 -1245 0
-1234 -1246 0
-1234 -1247 0
-1234 -1248 0
-1234 -1249 0
-1234 -1250 0
-1234 -1251 0
-1234 -1252 0
-1234 -1253 0
-1234 -1254 0
-1234 -1255 0
-1234 -1256 0
-1234 -1257 0
-1234 -1258 0
-1234 -1259 0
-1234 -1260 0
-1234 -1261 0
-1234 -1262 0
-1234 -1263 0
-1234 -1264 0
-1234 -1265 0
-1234 -1266 0
-1234 -1267 0
-1234 -1268 0
-1234 -1269 0
-1234 -1270 0
-1234 -1271 0
-1234 -1272 0
-1234 -1273 0
-1234 -1274 0
-1234 -1275 0
-1234 -1276 0
-1234 -1277 0
-1234 -1278 0
-1234 -1279 0
-1234 -1280 0
-1234 -1281 0
-1234 -1282 0
-1234 -1283 0
-1234 -1284 0
-1234 -1285 0
-1234 -1286 0
-1234 -1287 0
-1234 -1288 0
-1234 -1289 0
-1234 -1290 0
-1234 -1291 0
-1234 -1292 0
-1234 -1293 0
-1234 -1294 0
-1234 -1295 0
-1235 -1236 0
-1235 -1237 0
-1235 -1238 0
-1235 -1239 0
-1235 -1240 0
-1235 -1241 0
-1235 -1242 0
-1235 -1243 0
-1235 -1244 0
-1235 -1245 0
-1235 -1246 0
-1235 -1247 0
-1235 -1248 0
-1235 -1249 0
-1235 -1250 0
-1235 -1251 0
-1235 -1252 0
-1235 -1253 0
-1235 -1254 0
-1235 -1255 0
-1235 -1256 0
-1235 -1257 0
-1235 -1258 0
-1235 -1259 0
-1235 -1260 0
-1235 -1261 0
-1235 -1262 0
-1235 -1263 0
-1235 -1264 0
-1235 -1265 0
-1235 -1266 0
-1235 -1267 0
-1235 -1268 0
-1235 -1269 0
-1235 -1270 0
-1235 -1271 0
-1235 -1272 0
-1235 -1273 0
-1235 -1274 0
-1235 -1275 0
-1235 -1276 0
-1235 -1277 0
-1235 -1278 0
-1235 -1279 0
-1235 -1280 0
-1235 -1281 0
-1235 -1282 0
-1235 -1283 0
-1235 -1284 0
-1235 -1285 0
-1235 -1286 0
-1235 -1287 0
-1235 -1288 0
-1235 -1289 0
-1235 -1290 0
-1235 -1291 0
-1235 -1292 0
-1235 -1293 0
-1235 -1294 0
-1235 -1295 0
-1236 -1237 0
-1236 -1238 0
-1236 -1239 0
-1236 -1240 0
-1236 -1241 0
-1236 -1242 0
-1236 -1243 0
-1236 -1244 0
-1236 -1245 0
-1236 -1246 0
-1236 -1247 0
-1236 -1248 0
-1236 -1249 0
-1236 -1250 0
-1236 -1251 0
-1236 -1252 0
-1236 -1253 0
-1236 -1254 0
-1236 -1255 0
-1236 -1256 0
-1236 -1257 0
-1236 -1258 0
-1236 -1259 0
-1236 -1260 0
-1236 -1261 0
-1236 -1262 0
-1236 -1263 0
-1236 -1264 0
-1236 -1265 0
-1236 -1266 0
-1236 -1267 0
-1236 -1268 0
-1236 -1269 0
-1236 -1270 0
-1236 -1271 0
-1236 -1272 0
-1236 -1273 0
-1236 -1274 0
-1236 -1275 0
-1236 -1276 0
-1236 -1277 0
-1236 -1278 0
-1236 -1279 0
-1236 -1280 0
-1236 -1281 0
-1236 -1282 0
-1236 -1283 0
-1236 -1284 0
-1236 -1285 0
-1236 -1286 0
-1236 -1287 0
-1236 -1288 0
-1236 -1289 0
-1236 -1290 0
-1236 -1291 0
-1236 -1292 0
-1236 -1293 0
-1236 -1294 0
-1236 -1295 0
-1237 -1238 0
-1237 -1239 0
-1237 -1240 0
-1237 -1241 0
-1237 -1242 0
-1237 -1243 0
-1237 -1244 0
-1237 -1245 0
-1237 -1246 0
-1237 -1247 0
-1237 -1248 0
-1237 -1249 0
-1237 -1250 0
-1237 -1251 0
-1237 -1252 0
-1237 -1253 0
-1237 -1254 0
-1237 -1255 0
-1237 -1256 0
-1237 -1257 0
-1237 -1258 0
-1237 -1259 0
-1237 -1260 0
-1237 -1261 0
-1237 -1262 0
-1237 -1263 0
-1237 -1264 0
-1237 -1265 0
-1237 -1266 0
-1237 -1267 0
-1237 -1268 0
-1237 -1269 0
-1237 -1270 0
-1237 -1271 0
-1237 -1272 0
-1237 -1273 0
-1237 -1274 0
-1237 -1275 0
-1237 -1276 0
-1237 -1277 0
-1237 -1278 0
-1237 -1279 0
-1237 -1280 0
-1237 -1281 0
-1237 -1282 0
-1237 -1283 0
-1237 -1284 0
-1237 -1285 0
-1237 -1286 0
-1237 -1287 0
-1237 -1288 0
-1237 -1289 0
-1237 -1290 0
-1237 -1291 0
-1237 -1292 0
-1237 -1293 0
-1237 -1294 0
-1237 -1295 0
-1238 -1239 0
-1238 -1240 0
-1238 -1241 0
-1238 -1242 0
-1238 -1243 0
-1238 -1244 0
-1238 -1245 0
-1238 -1246 0
-1238 -1247 0
-1238 -1248 0
-1238 -1249 0
-1238 -1250 0
-1238 -1251 0
-1238 -1252 0
-1238 -1253 0
-1238 -1254 0
-1238 -1255 0
-1238 -1256 0
-1238 -1257 0
-1238 -1258 0
-1238 -1259 0
-1238 -1260 0
-1238 -1261 0
-1238 -1262 0
-1238 -1263 0
-1238 -1264 0
-1238 -1265 0
-1238 -1266 0
-1238 -1267 0
-1238 -1268 0
-1238 -1269 0
-1238 -1270 0
-1238 -1271 0
-1238 -1272 0
-1238 -1273 0
-1238 -1274 0
-1238 -1275 0
-1238 -1276 0
-1238 -1277 0
-1238 -1278 0
-1238 -1279 0
-1238 -1280 0
-1238 -1281 0
-1238 -1282 0
-1238 -1283 0
-1238 -1284 0
-1238 -1285 0
-1238 -1286 0
-1238 -1287 0
-1238 -1288 0
-1238 -1289 0
-1238 -1290 0
-1238 -1291 0
-1238 -1292 0
-1238 -1293 0
-1238 -1294 0
-1238 -1295 0
-1239 -1240 0
-1239 -1241 0
-1239 -1242 0
-1239 -1243 0
-1239 -1244 0
-1239 -1245 0
-1239 -1246 0
-1239 -1247 0
-1239 -1248 0
-1239 -1249 0
-1239 -1250 0
-1239 -1251 0
-1239 -1252 0
-1239 -1253 0
-1239 -1254 0
-1239 -1255 0
-1239 -1256 0
-1239 -1257 0
-1239 -1258 0
-1239 -1259 0
-1239 -1260 0
-1239 -1261 0
-1239 -1262 0
-1239 -1263 0
-1239 -1264 0
-1239 -1265 0
-1239 -1266 0
-1239 -1267 0
-1239 -1268 0
-1239 -1269 0
-1239 -1270 0
-1239 -1271 0
-1239 -1272 0
-1239 -1273 0
-1239 -1274 0
-1239 -1275 0
-1239 -1276 0
-1239 -1277 0
-1239 -1278 0
-1239 -1279 0
-1239 -1280 0
-1239 -1281 0
-1239 -1282 0
-1239 -1283 0
-1239 -1284 0
-1239 -1285 0
-1239 -1286 0
-1239 -1287 0
-1239 -1288 0
-1239 -1289 0
-1239 -1290 0
-1239 -1291 0
-1239 -1292 0
-1239 -1293 0
-1239 -1294 0
-1239 -1295 0
-1240 -1241 0
-1240 -1242 0
-1240 -1243 0
-1240 -1244 0
-1240 -1245 0
-1240 -1246 0
-1240 -1247 0
-1240 -1248 0
-1240 -1249 0
-1240 -1250 0
-1240 -1251 0
-1240 -1252 0
-1240 -1253 0
-1240 -1254 0
-1240 -1255 0
-1240 -1256 0
-1240 -1257 0
-1240 -1258 0
-1240 -1259 0
-1240 -1260 0
-1240 -1261 0
-1240 -1262 0
-1240 -1263 0
-1240 -1264 0
-1240 -1265 0
-1240 -1266 0
-1240 -1267 0
-1240 -1268 0
-1240 -1269 0
-1240 -1270 0
-1240 -1271 0
-1240 -1272 0
-1240 -1273 0
-1240 -1274 0
-1240 -1275 0
-1240 -1276 0
-1240 -1277 0
-1240 -1278 0
-1240 -1279 0
-1240 -1280 0
-1240 -1281 0
-1240 -1282 0
-1240 -1283 0
-1240 -1284 0
-1240 -1285 0
-1240 -1286 0
-1240 -1287 0
-1240 -1288 0
-1240 -1289 0
-1240 -1290 0
-1240 -1291 0
-1240 -1292 0
-1240 -1293 0
-1240 -1294 0
-1240 -1295 0
-1241 -1242 0
-1241 -1243 0
-1241 -1244 0
-1241 -1245 0
-1241 -1246 0
-1241 -1247 0
-1241 -1248 0
-1241 -1249 0
-1241 -1250 0
-1241 -1251 0
-1241 -1252 0
-1241 -1253 0
-1241 -1254 0
-1241 -1255 0
-1241 -1256 0
-1241 -1257 0
-1241 -1258 0
-1241 -1259 0
-1241 -1260 0
-1241 -1261 0
-1241 -1262 0
-1241 -1263 0
-1241 -1264 0
-1241 -1265 0
-1241 -1266 0
-1241 -1267 0
-1241 -1268 0
-1241 -1269 0
-1241 -1270 0
-1241 -1271 0
-1241 -1272 0
-1241 -1273 0
-1241 -1274 0
-1241 -1275 0
-1241 -1276 0
-1241 -1277 0
-1241 -1278 0
-1241 -1279 0
-1241 -1280 0
-1241 -1281 0
-1241 -1282 0
-1241 -1283 0
-1241 -1284 0
-1241 -1285 0
-1241 -1286 0
-1241 -1287 0
-1241 -1288 0
-1241 -1289 0
-1241 -1290 0
-1241 -1291 0
-1241 -1292 0
-1241 -1293 0
-1241 -1294 0
-1241 -1295 0
-1242 -1243 0
-1242 -1244 0
-1242 -1245 0
-1242 -1246 0
-1242 -1247 0
-1242 -1248 0
-1242 -1249 0
-1242 -1250 0
-1242 -1251 0
-1242 -1252 0
-1242 -1253 0
-1242 -1254 0
-1242 -1255 0
-1242 -1256 0
-1242 -1257 0
-1242 -1258 0
-1242 -1259 0
-1242 -1260 0
-1242 -1261 0
-1242 -1262 0
-1242 -1263 0
-1242 -1264 0
-1242 -1265 0
-1242 -1266 0
-1242 -1267 0
-1242 -1268 0
-1242 -1269 0
-1242 -1270 0
-1242 -1271 0
-1242 -1272 0
-1242 -1273 0
-1242 -1274 0
-1242 -1275 0
-1242 -1276 0
-1242 -1277 0
-1242 -1278 0
-1242 -1279 0
-1242 -1280 0
-1242 -1281 0
-1242 -1282 0
-1242 -1283 0
-1242 -1284 0
-1242 -1285 0
-1242 -1286 0
-1242 -1287 0
-1242 -1288 0
-1242 -1289 0
-1242 -1290 0
-1242 -1291 0
-1242 -1292 0
-1242 -1293 0
-1242 -1294 0
-1242 -1295 0
-1243 -1244 0
-1243 -1245 0
-1243 -1246 0
-1243 -1247 0
-1243 -1248 0
-1243 -1249 0
-1243 -1250 0
-1243 -1251 0
-1243 -1252 0
-1243 -1253 0
-1243 -1254 0
-1243 -1255 0
-1243 -1256 0
-1243 -1257 0
-1243 -1258 0
-1243 -1259 0
-1243 -1260 0
-1243 -1261 0
-1243 -1262 0
-1243 -1263 0
-1243 -1264 0
-1243 -1265 0
-1243 -1266 0
-1243 -1267 0
-1243 -1268 0
-1243 -1269 0
-1243 -1270 0
-1243 -1271 0
-1243 -1272 0
-1243 -1273 0
-1243 -1274 0
-1243 -1275 0
-1243 -1276 0
-1243 -1277 0
-1243 -1278 0
-1243 -1279 0
-1243 -1280 0
-1243 -1281 0
-1243 -1282 0
-1243 -1283 0
-1243 -1284 0
-1243 -1285 0
-1243 -1286 0
-1243 -1287 0
-1243 -1288 0
-1243 -1289 0
-1243 -1290 0
-1243 -1291 0
-1243 -1292 0
-1243 -1293 0
-1243 -1294 0
-1243 -1295 0
-1244 -1245 0
-1244 -1246 0
-1244 -1247 0
-1244 -1248 0
-1244 -1249 0
-1244 -1250 0
-1244 -1251 0
-1244 -1252 0
-1244 -1253 0
-1244 -1254 0
-1244 -1255 0
-1244 -1256 0
-1244 -1257 0
-1244 -1258 0
-1244 -1259 0
-1244 -1260 0
-1244 -1261 0
-1244 -1262 0
-1244 -1263 0
-1244 -1264 0
-1244 -1265 0
-1244 -1266 0
-1244 -1267 0
-1244 -1268 0
-1244 -1269 0
-1244 -1270 0
-1244 -1271 0
-1244 -1272 0
-1244 -1273 0
-1244 -1274 0
-1244 -1275 0
-1244 -1276 0
-1244 -1277 0
-1244 -1278 0
-1244 -1279 0
-1244 -1280 0
-1244 -1281 0
-1244 -1282 0
-1244 -1283 0
-1244 -1284 0
-1244 -1285 0
-1244 -1286 0
-1244 -1287 0
-1244 -1288 0
-1244 -1289 0
-1244 -1290 0
-1244 -1291 0
-1244 -1292 0
-1244 -1293 0
-1244 -1294 0
-1244 -1295 0
-1245 -1246 0
-1245 -1247 0
-1245 -1248 0
-1245 -1249 0
-1245 -1250 0
-1245 -1251 0
-1245 -1252 0
-1245 -1253 0
-1245 -1254 0
-1245 -1255 0
-1245 -1256 0
-1245 -1257 0
-1245 -1258 0
-1245 -1259 0
-1245 -1260 0
-1245 -1261 0
-1245 -1262 0
-1245 -1263 0
-1245 -1264 0
-1245 -1265 0
-1245 -1266 0
-1245 -1267 0
-1245 -1268 0
-1245 -1269 0
-1245 -1270 0
-1245 -1271 0
-1245 -1272 0
-1245 -1273 0
-1245 -1274 0
-1245 -1275 0
-1245 -1276 0
-1245 -1277 0
-1245 -1278 0
-1245 -1279 0
-1245 -1280 0
-1245 -1281 0
-1245 -1282 0
-1245 -1283 0
-1245 -1284 0
-1245 -1285 0
-1245 -1286 0
-1245 -1287 0
-1245 -1288 0
-1245 -1289 0
-1245 -1290 0
-1245 -1291 0
-1245 -1292 0
-1245 -1293 0
-1245 -1294 0
-1245 -1295 0
-1246 -1247 0
-1246 -1248 0
-1246 -1249 0
-1246 -1250 0
-1246 -1251 0
-1246 -1252 0
-1246 -1253 0
-1246 -1254 0
-1246 -1255 0
-1246 -1256 0
-1246 -1257 0
-1246 -1258 0
-1246 -1259 0
-1246 -1260 0
-1246 -1261 0
-1246 -1262 0
-1246 -1263 0
-1246 -1264 0
-1246 -1265 0
-1246 -1266 0
-1246 -1267 0
-1246 -1268 0
-1246 -1269 0
-1246 -1270 0
-1246 -1271 0
-1246 -1272 0
-1246 -1273 0
-1246 -1274 0
-1246 -1275 0
-1246 -1276 0
-1246 -1277 0
-1246 -1278 0
-1246 -1279 0
-1246 -1280 0
-1246 -1281 0
-1246 -1282 0
-1246 -1283 0
-1246 -1284 0
-1246 -1285 0
-1246 -1286 0
-1246 -1287 0
-1246 -1288 0
-1246 -1289 0
-1246 -1290 0
-1246 -1291 0
-1246 -1292 0
-1246 -1293 0
-1246 -1294 0
-1246 -1295 0
-1247 -1248 0
-1247 -1249 0
-1247 -1250 0
-1247 -1251 0
-1247 -1252 0
-1247 -1253 0
-1247 -1254 0
-1247 -1255 0
-1247 -1256 0
-1247 -1257 0
-1247 -1258 0
-1247 -1259 0
-1247 -1260 0
-1247 -1261 0
-1247 -1262 0
-1247 -1263 0
-1247 -1264 0
-1247 -1265 0
-1247 -1266 0
-1247 -1267 0
-1247 -1268 0
-1247 -1269 0
-1247 -1270 0
-1247 -1271 0
-1247 -1272 0
-1247 -1273 0
-1247 -1274 0
-1247 -1275 0
-1247 -1276 0
-1247 -1277 0
-1247 -1278 0
-1247 -1279 0
-1247 -1280 0
-1247 -1281 0
-1247 -1282 0
-1247 -1283 0
-1247 -1284 0
-1247 -1285 0
-1247 -1286 0
-1247 -1287 0
-1247 -1288 0
-1247 -1289 0
-1247 -1290 0
-1247 -1291 0
-1247 -1292 0
-1247 -1293 0
-1247 -1294 0
-1247 -1295 0
-1248 -1249 0
-1248 -1250 0
-1248 -1251 0
-1248 -1252 0
-1248 -1253 0
-1248 -1254 0
-1248 -1255 0
-1248 -1256 0
-1248 -1257 0
-1248 -1258 0
-1248 -1259 0
-1248 -1260 0
-1248 -1261 0
-1248 -1262 0
-1248 -1263 0
-1248 -1264 0
-1248 -1265 0
-1248 -1266 0
-1248 -1267 0
-1248 -1268 0
-1248 -1269 0
-1248 -1270 0
-1248 -1271 0
-1248 -1272 0
-1248 -1273 0
-1248 -1274 0
-1248 -1275 0
-1248 -1276 0
-1248 -1277 0
-1248 -1278 0
-1248 -1279 0
-1248 -1280 0
-1248 -1281 0
-1248 -1282 0
-1248 -1283 0
-1248 -1284 0
-1248 -1285 0
-1248 -1286 0
-1248 -1287 0
-1248 -1288 0
-1248 -1289 0
-1248 -1290 0
-1248 -1291 0
-1248 -1292 0
-1248 -1293 0
-1248 -1294 0
-1248 -1295 0
-1249 -1250 0
-1249 -1251 0
-1249 -1252 0
-1249 -1253 0
-1249 -1254 0
-1249 -1255 0
-1249 -1256 0
-1249 -1257 0
-1249 -1258 0
-1249 -1259 0
-1249 -1260 0
-1249 -1261 0
-1249 -1262 0
-1249 -1263 0
-1249 -1264 0
-1249 -1265 0
-1249 -1266 0
-1249 -1267 0
-1249 -1268 0
-1249 -1269 0
-1249 -1270 0
-1249 -1271 0
-1249 -1272 0
-1249 -1273 0
-1249 -1274 0
-1249 -1275 0
-1249 -1276 0
-1249 -1277 0
-1249 -1278 0
-1249 -1279 0
-1249 -1280 0
-1249 -1281 0
-1249 -1282 0
-1249 -1283 0
-1249 -1284 0
-1249 -1285 0
-1249 -1286 0
-1249 -1287 0
-1249 -1288 0
-1249 -1289 0
-1249 -1290 0
-1249 -1291 0
-1249 -1292 0
-1249 -1293 0
-1249 -1294 0
-1249 -1295 0
-1250 -1251 0
-1250 -1252 0
-1250 -1253 0
-1250 -1254 0
-1250 -1255 0
-1250 -1256 0
-1250 -1257 0
-1250 -1258 0
-1250 -1259 0
-1250 -1260 0
-1250 -1261 0
-1250 -1262 0
-1250 -1263 0
-1250 -1264 0
-1250 -1265 0
-1250 -1266 0
-1250 -1267 0
-1250 -1268 0
-1250 -1269 0
-1250 -1270 0
-1250 -1271 0
-1250 -1272 0
-1250 -1273 0
-1250 -1274 0
-1250 -1275 0
-1250 -1276 0
-1250 -1277 0
-1250 -1278 0
-1250 -1279 0
-1250 -1280 0
-1250 -1281 0
-1250 -1282 0
-1250 -1283 0
-1250 -1284 0
-1250 -1285 0
-1250 -1286 0
-1250 -1287 0
-1250 -1288 0
-1250 -1289 0
-1250 -1290 0
-1250 -1291 0
-1250 -1292 0
-1250 -1293 0
-1250 -1294 0
-1250 -1295 0
-1251 -1252 0
-1251 -1253 0
-1251 -1254 0
-1251 -1255 0
-1251 -1256 0
-1251 -1257 0
-1251 -1258 0
-1251 -1259 0
-1251 -1260 0
-1251 -1261 0
-1251 -1262 0
-1251 -1263 0
-1251 -1264 0
-1251 -1265 0
-1251 -1266 0
-1251 -1267 0
-1251 -1268 0
-1251 -1269 0
-1251 -1270 0
-1251 -1271 0
-1251 -1272 0
-1251 -1273 0
-1251 -1274 0
-1251 -1275 0
-1251 -1276 0
-1251 -1277 0
-1251 -1278 0
-1251 -1279 0
-1251 -1280 0
-1251 -1281 0
-1251 -1282 0
-1251 -1283 0
-1251 -1284 0
-1251 -1285 0
-1251 -1286 0
-1251 -1287 0
-1251 -1288 0
-1251 -1289 0
-1251 -1290 0
-1251 -1291 0
-1251 -1292 0
-1251 -1293 0
-1251 -1294 0
-1251 -1295 0
-1252 -1253 0
-1252 -1254 0
-1252 -1255 0
-1252 -1256 0
-1252 -1257 0
-1252 -1258 0
-1252 -1259 0
-1252 -1260 0
-1252 -1261 0
-1252 -1262 0
-1252 -1263 0
-1252 -1264 0
-1252 -1265 0
-1252 -1266 0
-1252 -1267 0
-1252 -1268 0
-1252 -1269 0
-1252 -1270 0
-1252 -1271 0
-1252 -1272 0
-1252 -1273 0
-1252 -1274 0
-1252 -1275 0
-1252 -1276 0
-1252 -1277 0
-1252 -1278 0
-1252 -1279 0
-1252 -1280 0
-1252 -1281 0
-1252 -1282 0
-1252 -1283 0
-1252 -1284 0
-1252 -1285 0
-1252 -1286 0
-1252 -1287 0
-1252 -1288 0
-1252 -1289 0
-1252 -1290 0
-1252 -1291 0
-1252 -1292 0
-1252 -1293 0
-1252 -1294 0
-1252 -1295 0
-1253 -1254 0
-1253 -1255 0
-1253 -1256 0
-1253 -1257 0
-1253 -1258 0
-1253 -1259 0
-1253 -1260 0
-1253 -1261 0
-1253 -1262 0
-1253 -1263 0
-1253 -1264 0
-1253 -1265 0
-1253 -1266 0
-1253 -1267 0
-1253 -1268 0
-1253 -1269 0
-1253 -1270 0
-1253 -1271 0
-1253 -1272 0
-1253 -1273 0
-1253 -1274 0
-1253 -1275 0
-1253 -1276 0
-1253 -1277 0
-1253 -1278 0
-1253 -1279 0
-1253 -1280 0
-1253 -1281 0
-1253 -1282 0
-1253 -1283 0
-1253 -1284 0
-1253 -1285 0
-1253 -1286 0
-1253 -1287 0
-1253 -1288 0
-1253 -1289 0
-1253 -1290 0
-1253 -1291 0
-1253 -1292 0
-1253 -1293 0
-1253 -1294 0
-1253 -1295 0
-1254 -1255 0
-1254 -1256 0
-1254 -1257 0
-1254 -1258 0
-1254 -1259 0
-1254 -1260 0
-1254 -1261 0
-1254 -1262 0
-1254 -1263 0
-1254 -1264 0
-1254 -1265 0
-1254 -1266 0
-1254 -1267 0
-1254 -1268 0
-1254 -1269 0
-1254 -1270 0
-1254 -1271 0
-1254 -1272 0
-1254 -1273 0
-1254 -1274 0
-1254 -1275 0
-1254 -1276 0
-1254 -1277 0
-1254 -1278 0
-1254 -1279 0
-1254 -1280 0
-1254 -1281 0
-1254 -1282 0
-1254 -1283 0
-1254 -1284 0
-1254 -1285 0
-1254 -1286 0
-1254 -1287 0
-1254 -1288 0
-1254 -1289 0
-1254 -1290 0
-1254 -1291 0
-1254 -1292 0
-1254 -1293 0
-1254 -1294 0
-1254 -1295 0
-1255 -1256 0
-1255 -1257 0
-1255 -1258 0
-1255 -1259 0
-1255 -1260 0
-1255 -1261 0
-1255 -1262 0
-1255 -1263 0
-1255 -1264 0
-1255 -1265 0
-1255 -1266 0
-1255 -1267 0
-1255 -1268 0
-1255 -1269 0
-1255 -1270 0
-1255 -1271 0
-1255 -1272 0
-1255 -1273 0
-1255 -1274 0
-1255 -1275 0
-1255 -1276 0
-1255 -1277 0
-1255 -1278 0
-1255 -1279 0
-1255 -1280 0
-1255 -1281 0
-1255 -1282 0
-1255 -1283 0
-1255 -1284 0
-1255 -1285 0
-1255 -1286 0
-1255 -1287 0
-1255 -1288 0
-1255 -1289 0
-1255 -1290 0
-1255 -1291 0
-1255 -1292 0
-1255 -1293 0
-1255 -1294 0
-1255 -1295 0
-1256 -1257 0
-1256 -1258 0
-1256 -1259 0
-1256 -1260 0
-1256 -1261 0
-1256 -1262 0
-1256 -1263 0
-1256 -1264 0
-1256 -1265 0
-1256 -1266 0
-1256 -1267 0
-1256 -1268 0
-1256 -1269 0
-1256 -1270 0
-1256 -1271 0
-1256 -1272 0
-1256 -1273 0
-1256 -1274 0
-1256 -1275 0
-1256 -1276 0
-1256 -1277 0
-1256 -1278 0
-1256 -1279 0
-1256 -1280 0
-1256 -1281 0
-1256 -1282 0
-1256 -1283 0
-1256 -1284 0
-1256 -1285 0
-1256 -1286 0
-1256 -1287 0
-1256 -1288 0
-1256 -1289 0
-1256 -1290 0
-1256 -1291 0
-1256 -1292 0
-1256 -1293 0
-1256 -1294 0
-1256 -1295 0
-1257 -1258 0
-1257 -1259 0
-1257 -1260 0
-1257 -1261 0
-1257 -1262 0
-1257 -1263 0
-1257 -1264 0
-1257 -1265 0
-1257 -1266 0
-1257 -1267 0
-1257 -1268 0
-1257 -1269 0
-1257 -1270 0
-1257 -1271 0
-1257 -1272 0
-1257 -1273 0
-1257 -1274 0
-1257 -1275 0
-1257 -1276 0
-1257 -1277 0
-1257 -1278 0
-1257 -1279 0
-1257 -1280 0
-1257 -1281 0
-1257 -1282 0
-1257 -1283 0
-1257 -1284 0
-1257 -1285 0
-1257 -1286 0
-1257 -1287 0
-1257 -1288 0
-1257 -1289 0
-1257 -1290 0
-1257 -1291 0
-1257 -1292 0
-1257 -1293 0
-1257 -1294 0
-1257 -1295 0
-1258 -1259 0
-1258 -1260 0
-1258 -1261 0
-1258 -1262 0
-1258 -1263 0
-1258 -1264 0
-1258 -1265 0
-1258 -1266 0
-1258 -1267 0
-1258 -1268 0
-1258 -1269 0
-1258 -1270 0
-1258 -1271 0
-1258 -1272 0
-1258 -1273 0
-1258 -1274 0
-1258 -1275 0
-1258 -1276 0
-1258 -1277 0
-1258 -1278 0
-1258 -1279 0
-1258 -1280 0
-1258 -1281 0
-1258 -1282 0
-1258 -1283 0
-1258 -1284 0
-1258 -1285 0
-1258 -1286 0
-1258 -1287 0
-1258 -1288 0
-1258 -1289 0
-1258 -1290 0
-1258 -1291 0
-1258 -1292 0
-1258 -1293 0
-1258 -1294 0
-1258 -1295 0
-1259 -1260 0
-1259 -1261 0
-1259 -1262 0
-1259 -1263 0
-1259 -1264 0
-1259 -1265 0
-1259 -1266 0
-1259 -1267 0
-1259 -1268 0
-1259 -1269 0
-1259 -1270 0
-1259 -1271 0
-1259 -1272 0
-1259 -1273 0
-1259 -1274 0
-1259 -1275 0
-1259 -1276 0
-1259 -1277 0
-1259 -1278 0
-1259 -1279 0
-1259 -1280 0
-1259 -1281 0
-1259 -1282 0
-1259 -1283 0
-1259 -1284 0
-1259 -1285 0
-1259 -1286 0
-1259 -1287 0
-1259 -1288 0
-1259 -1289 0
-1259 -1290 0
-1259 -1291 0
-1259 -1292 0
-1259 -1293 0
-1259 -1294 0
-1259 -1295 0
-1260 -1261 0
-1260 -1262 0
-1260 -1263 0
-1260 -1264 0
-1260 -1265 0
-1260 -1266 0
-1260 -1267 0
-1260 -1268 0
-1260 -1269 0
-1260 -1270 0
-1260 -1271 0
-1260 -1272 0
-1260 -1273 0
-1260 -1274 0
-1260 -1275 0
-1260 -1276 0
-1260 -1277 0
-1260 -1278 0
-1260 -1279 0
-1260 -1280 0
-1260 -1281 0
-1260 -1282 0
-1260 -1283 0
-1260 -1284 0
-1260 -1285 0
-1260 -1286 0
-1260 -1287 0
-1260 -1288 0
-1260 -1289 0
-1260 -1290 0
-1260 -1291 0
-1260 -1292 0
-1260 -1293 0
-1260 -1294 0
-1260 -1295 0
-1261 -1262 0
-1261 -1263 0
-1261 -1264 0
-1261 -1265 0
-1261 -1266 0
-1261 -1267 0
-1261 -1268 0
-1261 -1269 0
-1261 -1270 0
-1261 -1271 0
-1261 -1272 0
-1261 -1273 0
-1261 -1274 0
-1261 -1275 0
-1261 -1276 0
-1261 -1277 0
-1261 -1278 0
-1261 -1279 0
-1261 -1280 0
-1261 -1281 0
-1261 -1282 0
-1261 -1283 0
-1261 -1284 0
-1261 -1285 0
-1261 -1286 0
-1261 -1287 0
-1261 -1288 0
-1261 -1289 0
-1261 -1290 0
-1261 -1291 0
-1261 -1292 0
-1261 -1293 0
-1261 -1294 0
-1261 -1295 0
-1262 -1263 0
-1262 -1264 0
-1262 -1265 0
-1262 -1266 0
-1262 -1267 0
-1262 -1268 0
-1262 -1269 0
-1262 -1270 0
-1262 -1271 0
-1262 -1272 0
-1262 -1273 0
-1262 -1274 0
-1262 -1275 0
-1262 -1276 0
-1262 -1277 0
-1262 -1278 0
-1262 -1279 0
-1262 -1280 0
-1262 -1281 0
-1262 -1282 0
-1262 -1283 0
-1262 -1284 0
-1262 -1285 0
-1262 -1286 0
-1262 -1287 0
-1262 -1288 0
-1262 -1289 0
-1262 -1290 0
-1262 -1291 0
-1262 -1292 0
-1262 -1293 0
-1262 -1294 0
-1262 -1295 0
-1263 -1264 0
-1263 -1265 0
-1263 -1266 0
-1263 -1267 0
-1263 -1268 0
-1263 -1269 0
-1263 -1270 0
-1263 -1271 0
-1263 -1272 0
-1263 -1273 0
-1263 -1274 0
-1263 -1275 0
-1263 -1276 0
-1263 -1277 0
-1263 -1278 0
-1263 -1279 0
-1263 -1280 0
-1263 -1281 0
-1263 -1282 0
-1263 -1283 0
-1263 -1284 0
-1263 -1285 0
-1263 -1286 0
-1263 -1287 0
-1263 -1288 0
-1263 -1289 0
-1263 -1290 0
-1263 -1291 0
-1263 -1292 0
-1263 -1293 0
-1263 -1294 0
-1263 -1295 0
-1264 -1265 0
-1264 -1266 0
-1264 -1267 0
-1264 -1268 0
-1264 -1269 0
-1264 -1270 0
-1264 -1271 0
-1264 -1272 0
-1264 -1273 0
-1264 -1274 0
-1264 -1275 0
-1264 -1276 0
-1264 -1277 0
-1264 -1278 0
-1264 -1279 0
-1264 -1280 0
-1264 -1281 0
-1264 -1282 0
-1264 -1283 0
-1264 -1284 0
-1264 -1285 0
-1264 -1286 0
-1264 -1287 0
-1264 -1288 0
-1264 -1289 0
-1264 -1290 0
-1264 -1291 0
-1264 -1292 0
-1264 -1293 0
-1264 -1294 0
-1264 -1295 0
-1265 -1266 0
-1265 -1267 0
-1265 -1268 0
-1265 -1269 0
-1265 -1270 0
-1265 -1271 0
-1265 -1272 0
-1265 -1273 0
-1265 -1274 0
-1265 -1275 0
-1265 -1276 0
-1265 -1277 0
-1265 -1278 0
-1265 -1279 0
-1265 -1280 0
-1265 -1281 0
-1265 -1282 0
-1265 -1283 0
-1265 -1284 0
-1265 -1285 0
-1265 -1286 0
-1265 -1287 0
-1265 -1288 0
-1265 -1289 0
-1265 -1290 0
-1265 -1291 0
-1265 -1292 0
-1265 -1293 0
-1265 -1294 0
-1265 -1295 0
-1266 -1267 0
-1266 -1268 0
-1266 -1269 0
-1266 -1270 0
-1266 -1271 0
-1266 -1272 0
-1266 -1273 0
-1266 -1274 0
-1266 -1275 0
-1266 -1276 0
-1266 -1277 0
-1266 -1278 0
-1266 -1279 0
-1266 -1280 0
-1266 -1281 0
-1266 -1282 0
-1266 -1283 0
-1266 -1284 0
-1266 -1285 0
-1266 -1286 0
-1266 -1287 0
-1266 -1288 0
-1266 -1289 0
-1266 -1290 0
-1266 -1291 0
-1266 -1292 0
-1266 -1293 0
-1266 -1294 0
-1266 -1295 0
-1267 -1268 0
-1267 -1269 0
-1267 -1270 0
-1267 -1271 0
-1267 -1272 0
-1267 -1273 0
-1267 -1274 0
-1267 -1275 0
-1267 -1276 0
-1267 -1277 0
-1267 -1278 0
-1267 -1279 0
-1267 -1280 0
-1267 -1281 0
-1267 -1282 0
-1267 -1283 0
-1267 -1284 0
-1267 -1285 0
-1267 -1286 0
-1267 -1287 0
-1267 -1288 0
-1267 -1289 0
-1267 -1290 0
-1267 -1291 0
-1267 -1292 0
-1267 -1293 0
-1267 -1294 0
-1267 -1295 0
-1268 -1269 0
-1268 -1270 0
-1268 -1271 0
-1268 -1272 0
-1268 -1273 0
-1268 -1274 0
-1268 -1275 0
-1268 -1276 0
-1268 -1277 0
-1268 -1278 0
-1268 -1279 0
-1268 -1280 0
-1268 -1281 0
-1268 -1282 0
-1268 -1283 0
-1268 -1284 0
-1268 -1285 0
-1268 -1286 0
-1268 -1287 0
-1268 -1288 0
-1268 -1289 0
-1268 -1290 0
-1268 -1291 0
-1268 -1292 0
-1268 -1293 0
-1268 -1294 0
-1268 -1295 0
-1269 -1270 0
-1269 -1271 0
-1269 -1272 0
-1269 -1273 0
-1269 -1274 0
-1269 -1275 0
-1269 -1276 0
-1269 -1277 0
-1269 -1278 0
-1269 -1279 0
-1269 -1280 0
-1269 -1281 0
-1269 -1282 0
-1269 -1283 0
-1269 -1284 0
-1269 -1285 0
-1269 -1286 0
-1269 -1287 0
-1269 -1288 0
-1269 -1289 0
-1269 -1290 0
-1269 -1291 0
-1269 -1292 0
-1269 -1293 0
-1269 -1294 0
-1269 -1295 0
-1270 -1271 0
-1270 -1272 0
-1270 -1273 0
-1270 -1274 0
-1270 -1275 0
-1270 -1276 0
-1270 -1277 0
-1270 -1278 0
-1270 -1279 0
-1270 -1280 0
-1270 -1281 0
-1270 -1282 0
-1270 -1283 0
-1270 -1284 0
-1270 -1285 0
-1270 -1286 0
-1270 -1287 0
-1270 -1288 0
-1270 -1289 0
-1270 -1290 0
-1270 -1291 0
-1270 -1292 0
-1270 -1293 0
-1270 -1294 0
-1270 -1295 0
-1271 -1272 0
-1271 -1273 0
-1271 -1274 0
-1271 -1275 0
-1271 -1276 0
-1271 -1277 0
-1271 -1278 0
-1271 -1279 0
-1271 -1280 0
-1271 -1281 0
-1271 -1282 0
-1271 -1283 0
-1271 -1284 0
-1271 -1285 0
-1271 -1286 0
-1271 -1287 0
-1271 -1288 0
-1271 -1289 0
-1271 -1290 0
-1271 -1291 0
-1271 -1292 0
-1271 -1293 0
-1271 -1294 0
-1271 -1295 0
-1272 -1273 0
-1272 -1274 0
-1272 -1275 0
-1272 -1276 0
-1272 -1277 0
-1272 -1278 0
-1272 -1279 0
-1272 -1280 0
-1272 -1281 0
-1272 -1282 0
-1272 -1283 0
-1272 -1284 0
-1272 -1285 0
-1272 -1286 0
-1272 -1287 0
-1272 -1288 0
-1272 -1289 0
-1272 -1290 0
-1272 -1291 0
-1272 -1292 0
-1272 -1293 0
-1272 -1294 0
-1272 -1295 0
-1273 -1274 0
-1273 -1275 0
-1273 -1276 0
-1273 -1277 0
-1273 -1278 0
-1273 -1279 0
-1273 -1280 0
-1273 -1281 0
-1273 -1282 0
-1273 -1283 0
-1273 -1284 0
-1273 -1285 0
-1273 -1286 0
-1273 -1287 0
-1273 -1288 0
-1273 -1289 0
-1273 -1290 0
-1273 -1291 0
-1273 -1292 0
-1273 -1293 0
-1273 -1294 0
-1273 -1295 0
-1274 -1275 0
-1274 -1276 0
-1274 -1277 0
-1274 -1278 0
-1274 -1279 0
-1274 -1280 0
-1274 -1281 0
-1274 -1282 0
-1274 -1283 0
-1274 -1284 0
-1274 -1285 0
-1274 -1286 0
-1274 -1287 0
-1274 -1288 0
-1274 -1289 0
-1274 -1290 0
-1274 -1291 0
-1274 -1292 0
-1274 -1293 0
-1274 -1294 0
-1274 -1295 0
-1275 -1276 0
-1275 -1277 0
-1275 -1278 0
-1275 -1279 0
-1275 -1280 0
-1275 -1281 0
-1275 -1282 0
-1275 -1283 0
-1275 -1284 0
-1275 -1285 0
-1275 -1286 0
-1275 -1287 0
-1275 -1288 0
-1275 -1289 0
-1275 -1290 0
-1275 -1291 0
-1275 -1292 0
-1275 -1293 0
-1275 -1294 0
-1275 -1295 0
-1276 -1277 0
-1276 -1278 0
-1276 -1279 0
-1276 -1280 0
-1276 -1281 0
-1276 -1282 0
-1276 -1283 0
-1276 -1284 0
-1276 -1285 0
-1276 -1286 0
-1276 -1287 0
-1276 -1288 0
-1276 -1289 0
-1276 -1290 0
-1276 -1291 0
-1276 -1292 0
-1276 -1293 0
-1276 -1294 0
-1276 -1295 0
-1277 -1278 0
-1277 -1279 0
-1277 -1280 0
-1277 -1281 0
-1277 -1282 0
-1277 -1283 0
-1277 -1284 0
-1277 -1285 0
-1277 -1286 0
-1277 -1287 0
-1277 -1288 0
-1277 -1289 0
-1277 -1290 0
-1277 -1291 0
-1277 -1292 0
-1277 -1293 0
-1277 -1294 0
-1277 -1295 0
-1278 -1279 0
-1278 -1280 0
-1278 -1281 0
-1278 -1282 0
-1278 -1283 0
-1278 -1284 0
-1278 -1285 0
-1278 -1286 0
-1278 -1287 0
-1278 -1288 0
-1278 -1289 0
-1278 -1290 0
-1278 -1291 0
-1278 -1292 0
-1278 -1293 0
-1278 -1294 0
-1278 -1295 0
-1279 -1280 0
-1279 -1281 0
-1279 -1282 0
-1279 -1283 0
-1279 -1284 0
-1279 -1285 0
-1279 -1286 0
-1279 -1287 0
-1279 -1288 0
-1279 -1289 0
-1279 -1290 0
-1279 -1291 0
-1279 -1292 0
-1279 -1293 0
-1279 -1294 0
-1279 -1295 0
-1280 -1281 0
-1280 -1282 0
-1280 -1283 0
-1280 -1284 0
-1280 -1285 0
-1280 -1286 0
-1280 -1287 0
-1280 -1288 0
-1280 -1289 0
-1280 -1290 0
-1280 -1291 0
-1280 -1292 0
-1280 -1293 0
-1280 -1294 0
-1280 -1295 0
-1281 -1282 0
-1281 -1283 0
-1281 -1284 0
-1281 -1285 0
-1281 -1286 0
-1281 -1287 0
-1281 -1288 0
-1281 -1289 0
-1281 -1290 0
-1281 -1291 0
-1281 -1292 0
-1281 -1293 0
-1281 -1294 0
-1281 -1295 0
-1282 -1283 0
-1282 -1284 0
-1282 -1285 0
-1282 -1286 0
-1282 -1287 0
-1282 -1288 0
-1282 -1289 0
-1282 -1290 0
-1282 -1291 0
-1282 -1292 0
-1282 -1293 0
-1282 -1294 0
-1282 -1295 0
-1283 -1284 0
-1283 -1285 0
-1283 -1286 0
-1283 -1287 0
-1283 -1288 0
-1283 -1289 0
-1283 -1290 0
-1283 -1291 0
-1283 -1292 0
-1283 -1293 0
-1283 -1294 0
-1283 -1295 0
-1284 -1285 0
-1284 -1286 0
-1284 -1287 0
-1284 -1288 0
-1284 -1289 0
-1284 -1290 0
-1284 -1291 0
-1284 -1292 0
-1284 -1293 0
-1284 -1294 0
-1284 -1295 0
-1285 -1286 0
-1285 -1287 0
-1285 -1288 0
-1285 -1289 0
-1285 -1290 0
-1285 -1291 0
-1285 -1292 0
-1285 -1293 0
-1285 -1294 0
-1285 -1295 0
-1286 -1287 0
-1286 -1288 0
-1286 -1289 0
-1286 -1290 0
-1286 -1291 0
-1286 -1292 0
-1286 -1293 0
-1286 -1294 0
-1286 -1295 0
-1287 -1288 0
-1287 -1289 0
-1287 -1290 0
-1287 -1291 0
-1287 -1292 0
-1287 -1293 0
-1287 -1294 0
-1287 -1295 0
-1288 -1289 0
-1288 -1290 0
-1288 -1291 0
-1288 -1292 0
-1288 -1293 0
-1288 -1294 0
-1288 -1295 0
-1289 -1290 0
-1289 -1291 0
-1289 -1292 0
-1289 -1293 0
-1289 -1294 0
-1289 -1295 0
-1290 -1291 0
-1290 -1292 0
-1290 -1293 0
-1290 -1294 0
-1290 -1295 0
-1291 -1292 0
-1291 -1293 0
-1291 -1294 0
-1291 -1295 0
-1292 -1293 0
-1292 -1294 0
-1292 -1295 0
-1293 -1294 0
-1293 -1295 0
-1294 -1295 0
-299 448 1212 1213 1214 1215 1216 1217 1218 1219 1220 1221 1222 1223 1224 1225 1226 1227 1228 1229 1230 1231 1232 1233 1234 1235 0
299 -448 1212 1213 1214 1215 1216 1217 1218 1219 1220 1221 1222 1223 1224 1225 1226 1227 1228 1229 1230 1231 1232 1233 1234 1235 0
-300 449 1212 1213 1214 1215 1216 1217 1218 1219 1220 1221 1222 1223 1224 1225 1226 1227 1228 1229 1230 1231 1232 1233 1234 1235 0
300 -449 1212 1213 1214 1215 1216 1217 1218 1219 1220 1221 1222 1223 1224 1225 1226 1227 1228 1229 1230 1231 1232 1233 1234 1235 0
-301 450 1212 1213 1214 1215 1216 1217 1218 1219 1220 1221 1222 1223 1224 1225 1226 1227 1228 1229 1230 1231 1232 1233 1234 1235 0
301 -450 1212 1213 1214 1215 1216 1217 1218 1219 1220 1221 1222 1223 1224 1225 1226 1227 1228 1229 1230 1231 1232 1233 1234 1235 0
-302 451 1212 1213 1214 1215 1216 1217 1218 1219 1220 1221 1222 1223 1224 1225 1226 1227 1228 1229 1230 1231 1232 1233 1234 1235 0
302 -451 1212 1213 1214 1215 1216 1217 1218 1219 1220 1221 1222 1223 1224 1225 1226 1227 1228 1229 1230 1231 1232 1233 1234 1235 0
-303 452 1212 1213 1214 1215 1216 1217 1218 1219 1220 1221 1222 1223 1224 1225 1226 1227 1228 1229 1230 1231 1232 1233 1234 1235 0
303 -452 1212 1213 1214 1215 1216 1217 1218 1219 1220 1221 1222 1223 1224 1225 1226 1227 1228 1229 1230 1231 1232 1233 1234 1235 0
-304 453 1212 1213 1214 1215 1216 1217 1218 1219 1220 1221 1222 1223 1224 1225 1226 1227 1228 1229 1230 1231 1232 1233 1234 1235 0
304 -453 1212 1213 1214 1215 1216 1217 1218 1219 1220 1221 1222 1223 1224 1225 1226 1227 1228 1229 1230 1231 1232 1233 1234 1235 0
-305 454 1212 1213 1214 1215 1216 1217 1218 1219 1220 1221 1222 1223 1224 1225 1226 1227 1228 1229 1230 1231 1232 1233 1234 1235 0
305 -454 1212 1213 1214 1215 1216 1217 1218 1219 1220 1221 1222 1223 1224 1225 1226 1227 1228 1229 1230 1231 1232 1233 1234 1235 0
-306 455 1212 1213 1214 1215 1216 1217 1218 1219 1220 1221 1222 1223 1224 1225 1226 1227 1228 1229 1230 1231 1232 1233 1234 1235 0
306 -455 1212 1213 1214 1215 1216 1217 1218 1219 1220 1221 1222 1223 1224 1225 1226 1227 1228 1229 1230 1231 1232 1233 1234 1235 0
-307 456 1212 1213 1214 1215 1216 1217 1218 1219 1220 1221 1222 1223 1224 1225 1226 1227 1228 1229 1230 1231 1232 1233 1234 1235 0
307 -456 1212 1213 1214 1215 1216 1217 1218 1219 1220 1221 1222 1223 1224 1225 1226 1227 1228 1229 1230 1231 1232 1233 1234 1235 0
-308 457 1212 1213 1214 1215 1216 1217 1218 1219 1220 1221 1222 1223 1224 1225 1226 1227 1228 1229 1230 1231 1232 1233 1234 1235 0
308 -457 1212 1213 1214 1215 1216 1217 1218 1219 1220 1221 1222 1223 1224 1225 1226 1227 1228 1229 1230 1231 1232 1233 1234 1235 0
-358 507 1236 1237 1238 1239 1240 1241 1242 1243 1244 1245 1246 1247 1248 1249 1250 1251 1252 1253 1254 1255 1256 1257 1258 1259 0
358 -507 1236 1237 1238 1239 1240 1241 1242 1243 1244 1245 1246 1247 1248 1249 1250 1251 1252 1253 1254 1255 1256 1257 1258 1259 0
-359 508 1236 1237 1238 1239 1240 1241 1242 1243 1244 1245 1246 1247 1248 1249 1250 1251 1252 1253 1254 1255 1256 1257 1258 1259 0
359 -508 1236 1237 1238 1239 1240 1241 1242 1243 1244 1245 1246 1247 1248 1249 1250 1251 1252 1253 1254 1255 1256 1257 1258 1259 0
-360 509 1236 1237 1238 1239 1240 1241 1242 1243 1244 1245 1246 1247 1248 1249 1250 1251 1252 1253 1254 1255 1256 1257 1258 1259 0
360 -509 1236 1237 1238 1239 1240 1241 1242 1243 1244 1245 1246 1247 1248 1249 1250 1251 1252 1253 1254 1255 1256 1257 1258 1259 0
-361 510 1236 1237 1238 1239 1240 1241 1242 1243 1244 1245 1246 1247 1248 1249 1250 1251 1252 1253 1254 1255 1256 1257 1258 1259 0
361 -510 1236 1237 1238 1239 1240 1241 1242 1243 1244 1245 1246 1247 1248 1249 1250 1251 1252 1253 1254 1255 1256 1257 1258 1259 0
-362 511 1236 1237 1238 1239 1240 1241 1242 1243 1244 1245 1246 1247 1248 1249 1250 1251 1252 1253 1254 1255 1256 1257 1258 1259 0
362 -511 1236 1237 1238 1239 1240 1241 1242 1243 1244 1245 1246 1247 1248 1249 1250 1251 1252 1253 1254 1255 1256 1257 1258 1259 0
-363 512 1236 1237 1238 1239 1240 1241 1242 1243 1244 1245 1246 1247 1248 1249 1250 1251 1252 1253 1254 1255 1256 1257 1258 1259 0
363 -512 1236 1237 1238 1239 1240 1241 1242 1243 1244 1245 1246 1247 1248 1249 1250 1251 1252 1253 1254 1255 1256 1257 1258 1259 0
-364 513 1236 1237 1238 1239 1240 1241 1242 1243 1244 1245 1246 1247 1248 1249 1250 1251 1252 1253 1254 1255 1256 1257 1258 1259 0
364 -513 1236 1237 1238 1239 1240 1241 1242 1243 1244 1245 1246 1247 1248 1249 1250 1251 1252 1253 1254 1255 1256 1257 1258 1259 0
-365 514 1236 1237 1238 1239 1240 1241 1242 1243 1244 1245 1246 1247 1248 1249 1250 1251 1252 1253 1254 1255 1256 1257 1258 1259 0
365 -514 1236 1237 1238 1239 1240 1241 1242 1243 1244 1245 1246 1247 1248 1249 1250 1251 1252 1253 1254 1255 1256 1257 1258 1259 0
-366 515 1236 1237 1238 1239 1240 1241 1242 1243 1244 1245 1246 1247 1248 1249 1250 1251 1252 1253 1254 1255 1256 1257 1258 1259 0
366 -515 1236 1237 1238 1239 1240 1241 1242 1243 1244 1245 1246 1247 1248 1249 1250 1251 1252 1253 1254 1255 1256 1257 1258 1259 0
-367 516 1236 1237 1238 1239 1240 1241 1242 1243 1244 1245 1246 1247 1248 1249 1250 1251 1252 1253 1254 1255 1256 1257 1258 1259 0
367 -516 1236 1237 1238 1239 1240 1241 1242 1243 1244 1245 1246 1247 1248 1249 1250 1251 1252 1253 1254 1255 1256 1257 1258 1259 0
-393 542 1260 1261 1262 1263 1264 1265 1266 1267 1268 1269 1270 1271 1272 1273 1274 1275 1276 1277 1278 1279 0
393 -542 1260 1261 1262 1263 1264 1265 1266 1267 1268 1269 1270 1271 1272 1273 1274 1275 1276 1277 1278 1279 0
-394 543 1260 1261 1262 1263 1264 1265 1266 1267 1268 1269 1270 1271 1272 1273 1274 1275 1276 1277 1278 1279 0
394 -543 1260 1261 1262 1263 1264 1265 1266 1267 1268 1269 1270 1271 1272 1273 1274 1275 1276 1277 1278 1279 0
-395 544 1260 1261 1262 1263 1264 1265 1266 1267 1268 1269 1270 1271 1272 1273 1274 1275 1276 1277 1278 1279 0
395 -544 1260 1261 1262 1263 1264 1265 1266 1267 1268 1269 1270 1271 1272 1273 1274 1275 1276 1277 1278 1279 0
-396 545 1260 1261 1262 1263 1264 1265 1266 1267 1268 1269 1270 1271 1272 1273 1274 1275 1276 1277 1278 1279 0
396 -545 1260 1261 1262 1263 1264 1265 1266 1267 1268 1269 1270 1271 1272 1273 1274 1275 1276 1277 1278 1279 0
-397 546 1260 1261 1262 1263 1264 1265 1266 1267 1268 1269 1270 1271 1272 1273 1274 1275 1276 1277 1278 1279 0
397 -546 1260 1261 1262 1263 1264 1265 1266 1267 1268 1269 1270 1271 1272 1273 1274 1275 1276 1277 1278 1279 0
-398 547 1260 1261 1262 1263 1264 1265 1266 1267 1268 1269 1270 1271 1272 1273 1274 1275 1276 1277 1278 1279 0
398 -547 1260 1261 1262 1263 1264 1265 1266 1267 1268 1269 1270 1271 1272 1273 1274 1275 1276 1277 1278 1279 0
-399 548 1260 1261 1262 1263 1264 1265 1266 1267 1268 1269 1270 1271 1272 1273 1274 1275 1276 1277 1278 1279 0
399 -548 1260 1261 1262 1263 1264 1265 1266 1267 1268 1269 1270 1271 1272 1273 1274 1275 1276 1277 1278 1279 0
-400 549 1260 1261 1262 1263 1264 1265 1266 1267 1268 1269 1270 1271 1272 1273 1274 1275 1276 1277 1278 1279 0
400 -549 1260 1261 1262 1263 1264 1265 1266 1267 1268 1269 1270 1271 1272 1273 1274 1275 1276 1277 1278 1279 0
-401 550 1260 1261 1262 1263 1264 1265 1266 1267 1268 1269 1270 1271 1272 1273 1274 1275 1276 1277 1278 1279 0
401 -550 1260 1261 1262 1263 1264 1265 1266 1267 1268 1269 1270 1271 1272 1273 1274 1275 1276 1277 1278 1279 0
-423 572 1280 1281 1282 1283 1284 1285 1286 1287 1288 1289 1290 1291 1292 1293 1294 1295 0
423 -572 1280 1281 1282 1283 1284 1285 1286 1287 1288 1289 1290 1291 1292 1293 1294 1295 0
-424 573 1280 1281 1282 1283 1284 1285 1286 1287 1288 1289 1290 1291 1292 1293 1294 1295 0
424 -573 1280 1281 1282 1283 1284 1285 1286 1287 1288 1289 1290 1291 1292 1293 1294 1295 0
-425 574 1280 1281 1282 1283 1284 1285 1286 1287 1288 1289 1290 1291 1292 1293 1294 1295 0
425 -574 1280 1281 1282 1283 1284 1285 1286 1287 1288 1289 1290 1291 1292 1293 1294 1295 0
-426 575 1280 1281 1282 1283 1284 1285 1286 1287 1288 1289 1290 1291 1292 1293 1294 1295 0
426 -575 1280 1281 1282 1283 1284 1285 1286 1287 1288 1289 1290 1291 1292 1293 1294 1295 0
-427 576 1280 1281 1282 1283 1284 1285 1286 1287 1288 1289 1290 1291 1292 1293 1294 1295 0
427 -576 1280 1281 1282 1283 1284 1285 1286 1287 1288 1289 1290 1291 1292 1293 1294 1295 0
-428 577 1280 1281 1282 1283 1284 1285 1286 1287 1288 1289 1290 1291 1292 1293 1294 1295 0
428 -577 1280 1281 1282 1283 1284 1285 1286 1287 1288 1289 1290 1291 1292 1293 1294 1295 0
-429 578 1280 1281 1282 1283 1284 1285 1286 1287 1288 1289 1290 1291 1292 1293 1294 1295 0
429 -578 1280 1281 1282 1283 1284 1285 1286 1287 1288 1289 1290 1291 1292 1293 1294 1295 0
-430 579 1280 1281 1282 1283 1284 1285 1286 1287 1288 1289 1290 1291 1292 1293 1294 1295 0
430 -579 1280 1281 1282 1283 1284 1285 1286 1287 1288 1289 1290 1291 1292 1293 1294 1295 0
-1296 462 0
-1296 597 0
-1296 611 0
-1296 603 0
-1296 -448 -454 0
-1297 462 0
-1297 598 0
-1297 611 0
-1297 603 0
-1297 -449 -454 0
-1298 462 0
-1298 599 0
-1298 611 0
-1298 603 0
-1298 -450 -454 0
-1299 462 0
-1299 600 0
-1299 611 0
-1299 603 0
-1299 -451 -454 0
-1300 462 0
-1300 601 0
-1300 611 0
-1300 603 0
-1300 -452 -454 0
-1301 462 0
-1301 602 0
-1301 611 0
-1301 603 0
-1301 -453 -454 0
-1302 462 0
-1302 597 0
-1302 611 0
-1302 507 0
-1302 -516 0
-1302 -667 0
-1302 -513 604 0
-1302 -513 -448 -455 0
-1302 -514 605 0
-1302 -514 -448 -456 0
-1302 -515 606 0
-1302 -515 -448 -457 0
-1303 462 0
-1303 598 0
-1303 611 0
-1303 508 0
-1303 -516 0
-1303 -667 0
-1303 -513 604 0
-1303 -513 -449 -455 0
-1303 -514 605 0
-1303 -514 -449 -456 0
-1303 -515 606 0
-1303 -515 -449 -457 0
-1304 462 0
-1304 599 0
-1304 611 0
-1304 509 0
-1304 -516 0
-1304 -667 0
-1304 -513 604 0
-1304 -513 -450 -455 0
-1304 -514 605 0
-1304 -514 -450 -456 0
-1304 -515 606 0
-1304 -515 -450 -457 0
-1305 462 0
-1305 600 0
-1305 611 0
-1305 510 0
-1305 -516 0
-1305 -667 0
-1305 -513 604 0
-1305 -513 -451 -455 0
-1305 -514 605 0
-1305 -514 -451 -456 0
-1305 -515 606 0
-1305 -515 -451 -457 0
-1306 462 0
-1306 601 0
-1306 611 0
-1306 511 0
-1306 -516 0
-1306 -667 0
-1306 -513 604 0
-1306 -513 -452 -455 0
-1306 -514 605 0
-1306 -514 -452 -456 0
-1306 -515 606 0
-1306 -515 -452 -457 0
-1307 462 0
-1307 602 0
-1307 611 0
-1307 512 0
-1307 -516 0
-1307 -667 0
-1307 -513 604 0
-1307 -513 -453 -455 0
-1307 -514 605 0
-1307 -514 -453 -456 0
-1307 -515 606 0
-1307 -515 -453 -457 0
-1308 462 0
-1308 597 0
-1308 611 0
-1308 542 0
-1308 -550 0
-1308 -701 0
-1308 -547 604 0
-1308 -547 -448 -455 0
-1308 -548 605 0
-1308 -548 -448 -456 0
-1308 -549 606 0
-1308 -549 -448 -457 0
-1309 462 0
-1309 598 0
-1309 611 0
-1309 542 543 0
-1309 -550 0
-1309 -701 0
-1309 -547 604 0
-1309 -547 -449 -455 0
-1309 -548 605 0
-1309 -548 -449 -456 0
-1309 -549 606 0
-1309 -549 -449 -457 0
-1310 462 0
-1310 599 0
-1310 611 0
-1310 543 544 0
-1310 -550 0
-1310 -701 0
-1310 -547 604 0
-1310 -547 -450 -455 0
-1310 -548 605 0
-1310 -548 -450 -456 0
-1310 -549 606 0
-1310 -549 -450 -457 0
-1311 462 0
-1311 600 0
-1311 611 0
-1311 544 545 0
-1311 -550 0
-1311 -701 0
-1311 -547 604 0
-1311 -547 -451 -455 0
-1311 -548 605 0
-1311 -548 -451 -456 0
-1311 -549 606 0
-1311 -549 -451 -457 0
-1312 462 0
-1312 601 0
-1312 611 0
-1312 545 546 0
-1312 -550 0
-1312 -701 0
-1312 -547 604 0
-1312 -547 -452 -455 0
-1312 -548 605 0
-1312 -548 -452 -456 0
-1312 -549 606 0
-1312 -549 -452 -457 0
-1313 462 0
-1313 602 0
-1313 611 0
-1313 546 0
-1313 -550 0
-1313 -701 0
-1313 -547 604 0
-1313 -547 -453 -455 0
-1313 -548 605 0
-1313 -548 -453 -456 0
-1313 -549 606 0
-1313 -549 -453 -457 0
-1314 462 0
-1314 597 0
-1314 611 0
-1314 572 0
-1314 -579 0
-1314 -730 0
-1314 -576 604 0
-1314 -576 -448 -455 0
-1314 -577 605 0
-1314 -577 -448 -456 0
-1314 -578 606 0
-1314 -578 -448 -457 0
-1315 462 0
-1315 598 0
-1315 611 0
-1315 572 573 0
-1315 -579 0
-1315 -730 0
-1315 -576 604 0
-1315 -576 -449 -455 0
-1315 -577 605 0
-1315 -577 -449 -456 0
-1315 -578 606 0
-1315 -578 -449 -457 0
-1316 462 0
-1316 599 0
-1316 611 0
-1316 572 573 574 0
-1316 -579 0
-1316 -730 0
-1316 -576 604 0
-1316 -576 -450 -455 0
-1316 -577 605 0
-1316 -577 -450 -456 0
-1316 -578 606 0
-1316 -578 -450 -457 0
-1317 462 0
-1317 600 0
-1317 611 0
-1317 573 574 575 0
-1317 -579 0
-1317 -730 0
-1317 -576 604 0
-1317 -576 -451 -455 0
-1317 -577 605 0
-1317 -577 -451 -456 0
-1317 -578 606 0
-1317 -578 -451 -457 0
-1318 462 0
-1318 601 0
-1318 611 0
-1318 574 575 0
-1318 -579 0
-1318 -730 0
-1318 -576 604 0
-1318 -576 -452 -455 0
-1318 -577 605 0
-1318 -577 -452 -456 0
-1318 -578 606 0
-1318 -578 -452 -457 0
-1319 462 0
-1319 602 0
-1319 611 0
-1319 575 0
-1319 -579 0
-1319 -730 0
-1319 -576 604 0
-1319 -576 -453 -455 0
-1319 -577 605 0
-1319 -577 -453 -456 0
-1319 -578 606 0
-1319 -578 -453 -457 0
-1320 518 0
-1320 656 0
-1320 667 0
-1320 662 0
-1320 -507 -513 0
-1321 518 0
-1321 657 0
-1321 667 0
-1321 662 0
-1321 -508 -513 0
-1322 518 0
-1322 658 0
-1322 667 0
-1322 662 0
-1322 -509 -513 0
-1323 518 0
-1323 659 0
-1323 667 0
-1323 662 0
-1323 -510 -513 0
-1324 518 0
-1324 660 0
-1324 667 0
-1324 662 0
-1324 -511 -513 0
-1325 518 0
-1325 661 0
-1325 667 0
-1325 662 0
-1325 -512 -513 0
-1326 518 0
-1326 656 0
-1326 667 0
-1326 448 0
-1326 -457 0
-1326 -611 0
-1326 -454 663 0
-1326 -454 -507 -514 0
-1326 -455 664 0
-1326 -455 -507 -515 0
-1326 -456 665 0
-1326 -456 -507 -516 0
-1327 518 0
-1327 657 0
-1327 667 0
-1327 449 0
-1327 -457 0
-1327 -611 0
-1327 -454 663 0
-1327 -454 -508 -514 0
-1327 -455 664 0
-1327 -455 -508 -515 0
-1327 -456 665 0
-1327 -456 -508 -516 0
-1328 518 0
-1328 658 0
-1328 667 0
-1328 450 0
-1328 -457 0
-1328 -611 0
-1328 -454 663 0
-1328 -454 -509 -514 0
-1328 -455 664 0
-1328 -455 -509 -515 0
-1328 -456 665 0
-1328 -456 -509 -516 0
-1329 518 0
-1329 659 0
-1329 667 0
-1329 451 0
-1329 -457 0
-1329 -611 0
-1329 -454 663 0
-1329 -454 -510 -514 0
-1329 -455 664 0
-1329 -455 -510 -515 0
-1329 -456 665 0
-1329 -456 -510 -516 0
-1330 518 0
-1330 660 0
-1330 667 0
-1330 452 0
-1330 -457 0
-1330 -611 0
-1330 -454 663 0
-1330 -454 -511 -514 0
-1330 -455 664 0
-1330 -455 -511 -515 0
-1330 -456 665 0
-1330 -456 -511 -516 0
-1331 518 0
-1331 661 0
-1331 667 0
-1331 453 0
-1331 -457 0
-1331 -611 0
-1331 -454 663 0
-1331 -454 -512 -514 0
-1331 -455 664 0
-1331 -455 -512 -515 0
-1331 -456 665 0
-1331 -456 -512 -516 0
-1332 518 0
-1332 656 0
-1332 667 0
-1332 542 0
-1332 -550 0
-1332 -701 0
-1332 -547 663 0
-1332 -547 -507 -514 0
-1332 -548 664 0
-1332 -548 -507 -515 0
-1332 -549 665 0
-1332 -549 -507 -516 0
-1333 518 0
-1333 657 0
-1333 667 0
-1333 542 543 0
-1333 -550 0
-1333 -701 0
-1333 -547 663 0
-1333 -547 -508 -514 0
-1333 -548 664 0
-1333 -548 -508 -515 0
-1333 -549 665 0
-1333 -549 -508 -516 0
-1334 518 0
-1334 658 0
-1334 667 0
-1334 543 544 0
-1334 -550 0
-1334 -701 0
-1334 -547 663 0
-1334 -547 -509 -514 0
-1334 -548 664 0
-1334 -548 -509 -515 0
-1334 -549 665 0
-1334 -549 -509 -516 0
-1335 518 0
-1335 659 0
-1335 667 0
-1335 544 545 0
-1335 -550 0
-1335 -701 0
-1335 -547 663 0
-1335 -547 -510 -514 0
-1335 -548 664 0
-1335 -548 -510 -515 0
-1335 -549 665 0
-1335 -549 -510 -516 0
-1336 518 0
-1336 660 0
-1336 667 0
-1336 545 546 0
-1336 -550 0
-1336 -701 0
-1336 -547 663 0
-1336 -547 -511 -514 0
-1336 -548 664 0
-1336 -548 -511 -515 0
-1336 -549 665 0
-1336 -549 -511 -516 0
-1337 518 0
-1337 661 0
-1337 667 0
-1337 546 0
-1337 -550 0
-1337 -701 0
-1337 -547 663 0
-1337 -547 -512 -514 0
-1337 -548 664 0
-1337 -548 -512 -515 0
-1337 -549 665 0
-1337 -549 -512 -516 0
-1338 518 0
-1338 656 0
-1338 667 0
-1338 572 0
-1338 -579 0
-1338 -730 0
-1338 -576 663 0
-1338 -576 -507 -514 0
-1338 -577 664 0
-1338 -577 -507 -515 0
-1338 -578 665 0
-1338 -578 -507 -516 0
-1339 518 0
-1339 657 0
-1339 667 0
-1339 572 573 0
-1339 -579 0
-1339 -730 0
-1339 -576 663 0
-1339 -576 -508 -514 0
-1339 -577 664 0
-1339 -577 -508 -515 0
-1339 -578 665 0
-1339 -578 -508 -516 0
-1340 518 0
-1340 658 0
-1340 667 0
-1340 572 573 574 0
-1340 -579 0
-1340 -730 0
-1340 -576 663 0
-1340 -576 -509 -514 0
-1340 -577 664 0
-1340 -577 -509 -515 0
-1340 -578 665 0
-1340 -578 -509 -516 0
-1341 518 0
-1341 659 0
-1341 667 0
-1341 573 574 575 0
-1341 -579 0
-1341 -730 0
-1341 -576 663 0
-1341 -576 -510 -514 0
-1341 -577 664 0
-1341 -577 -510 -515 0
-1341 -578 665 0
-1341 -578 -510 -516 0
-1342 518 0
-1342 660 0
-1342 667 0
-1342 574 575 0
-1342 -579 0
-1342 -730 0
-1342 -576 663 0
-1342 -576 -511 -514 0
-1342 -577 664 0
-1342 -577 -511 -515 0
-1342 -578 665 0
-1342 -578 -511 -516 0
-1343 518 0
-1343 661 0
-1343 667 0
-1343 575 0
-1343 -579 0
-1343 -730 0
-1343 -576 663 0
-1343 -576 -512 -514 0
-1343 -577 664 0
-1343 -577 -512 -515 0
-1343 -578 665 0
-1343 -578 -512 -516 0
-1344 552 0
-1344 691 0
-1344 701 0
-1344 696 0
-1344 -542 -547 0
-1345 552 0
-1345 692 0
-1345 701 0
-1345 696 0
-1345 -543 -547 0
-1346 552 0
-1346 693 0
-1346 701 0
-1346 696 0
-1346 -544 -547 0
-1347 552 0
-1347 694 0
-1347 701 0
-1347 696 0
-1347 -545 -547 0
-1348 552 0
-1348 695 0
-1348 701 0
-1348 696 0
-1348 -546 -547 0
-1349 552 0
-1349 691 0
-1349 701 0
-1349 448 449 0
-1349 -457 0
-1349 -611 0
-1349 -454 697 0
-1349 -454 -542 -548 0
-1349 -455 698 0
-1349 -455 -542 -549 0
-1349 -456 699 0
-1349 -456 -542 -550 0
-1350 552 0
-1350 692 0
-1350 701 0
-1350 449 450 0
-1350 -457 0
-1350 -611 0
-1350 -454 697 0
-1350 -454 -543 -548 0
-1350 -455 698 0
-1350 -455 -543 -549 0
-1350 -456 699 0
-1350 -456 -543 -550 0
-1351 552 0
-1351 693 0
-1351 701 0
-1351 450 451 0
-1351 -457 0
-1351 -611 0
-1351 -454 697 0
-1351 -454 -544 -548 0
-1351 -455 698 0
-1351 -455 -544 -549 0
-1351 -456 699 0
-1351 -456 -544 -550 0
-1352 552 0
-1352 694 0
-1352 701 0
-1352 451 452 0
-1352 -457 0
-1352 -611 0
-1352 -454 697 0
-1352 -454 -545 -548 0
-1352 -455 698 0
-1352 -455 -545 -549 0
-1352 -456 699 0
-1352 -456 -545 -550 0
-1353 552 0
-1353 695 0
-1353 701 0
-1353 452 453 0
-1353 -457 0
-1353 -611 0
-1353 -454 697 0
-1353 -454 -546 -548 0
-1353 -455 698 0
-1353 -455 -546 -549 0
-1353 -456 699 0
-1353 -456 -546 -550 0
-1354 552 0
-1354 691 0
-1354 701 0
-1354 507 508 0
-1354 -516 0
-1354 -667 0
-1354 -513 697 0
-1354 -513 -542 -548 0
-1354 -514 698 0
-1354 -514 -542 -549 0
-1354 -515 699 0
-1354 -515 -542 -550 0
-1355 552 0
-1355 692 0
-1355 701 0
-1355 508 509 0
-1355 -516 0
-1355 -667 0
-1355 -513 697 0
-1355 -513 -543 -548 0
-1355 -514 698 0
-1355 -514 -543 -549 0
-1355 -515 699 0
-1355 -515 -543 -550 0
-1356 552 0
-1356 693 0
-1356 701 0
-1356 509 510 0
-1356 -516 0
-1356 -667 0
-1356 -513 697 0
-1356 -513 -544 -548 0
-1356 -514 698 0
-1356 -514 -544 -549 0
-1356 -515 699 0
-1356 -515 -544 -550 0
-1357 552 0
-1357 694 0
-1357 701 0
-1357 510 511 0
-1357 -516 0
-1357 -667 0
-1357 -513 697 0
-1357 -513 -545 -548 0
-1357 -514 698 0
-1357 -514 -545 -549 0
-1357 -515 699 0
-1357 -515 -545 -550 0
-1358 552 0
-1358 695 0
-1358 701 0
-1358 511 512 0
-1358 -516 0
-1358 -667 0
-1358 -513 697 0
-1358 -513 -546 -548 0
-1358 -514 698 0
-1358 -514 -546 -549 0
-1358 -515 699 0
-1358 -515 -546 -550 0
-1359 552 0
-1359 691 0
-1359 701 0
-1359 572 573 0
-1359 -579 0
-1359 -730 0
-1359 -576 697 0
-1359 -576 -542 -548 0
-1359 -577 698 0
-1359 -577 -542 -549 0
-1359 -578 699 0
-1359 -578 -542 -550 0
-1360 552 0
-1360 692 0
-1360 701 0
-1360 572 573 574 0
-1360 -579 0
-1360 -730 0
-1360 -576 697 0
-1360 -576 -543 -548 0
-1360 -577 698 0
-1360 -577 -543 -549 0
-1360 -578 699 0
-1360 -578 -543 -550 0
-1361 552 0
-1361 693 0
-1361 701 0
-1361 572 573 574 575 0
-1361 -579 0
-1361 -730 0
-1361 -576 697 0
-1361 -576 -544 -548 0
-1361 -577 698 0
-1361 -577 -544 -549 0
-1361 -578 699 0
-1361 -578 -544 -550 0
-1362 552 0
-1362 694 0
-1362 701 0
-1362 573 574 575 0
-1362 -579 0
-1362 -730 0
-1362 -576 697 0
-1362 -576 -545 -548 0
-1362 -577 698 0
-1362 -577 -545 -549 0
-1362 -578 699 0
-1362 -578 -545 -550 0
-1363 552 0
-1363 695 0
-1363 701 0
-1363 574 575 0
-1363 -579 0
-1363 -730 0
-1363 -576 697 0
-1363 -576 -546 -548 0
-1363 -577 698 0
-1363 -577 -546 -549 0
-1363 -578 699 0
-1363 -578 -546 -550 0
-1364 581 0
-1364 721 0
-1364 730 0
-1364 725 0
-1364 -572 -576 0
-1365 581 0
-1365 722 0
-1365 730 0
-1365 725 0
-1365 -573 -576 0
-1366 581 0
-1366 723 0
-1366 730 0
-1366 725 0
-1366 -574 -576 0
-1367 581 0
-1367 724 0
-1367 730 0
-1367 725 0
-1367 -575 -576 0
-1368 581 0
-1368 721 0
-1368 730 0
-1368 448 449 450 0
-1368 -457 0
-1368 -611 0
-1368 -454 726 0
-1368 -454 -572 -577 0
-1368 -455 727 0
-1368 -455 -572 -578 0
-1368 -456 728 0
-1368 -456 -572 -579 0
-1369 581 0
-1369 722 0
-1369 730 0
-1369 449 450 451 0
-1369 -457 0
-1369 -611 0
-1369 -454 726 0
-1369 -454 -573 -577 0
-1369 -455 727 0
-1369 -455 -573 -578 0
-1369 -456 728 0
-1369 -456 -573 -579 0
-1370 581 0
-1370 723 0
-1370 730 0
-1370 450 451 452 0
-1370 -457 0
-1370 -611 0
-1370 -454 726 0
-1370 -454 -574 -577 0
-1370 -455 727 0
-1370 -455 -574 -578 0
-1370 -456 728 0
-1370 -456 -574 -579 0
-1371 581 0
-1371 724 0
-1371 730 0
-1371 451 452 453 0
-1371 -457 0
-1371 -611 0
-1371 -454 726 0
-1371 -454 -575 -577 0
-1371 -455 727 0
-1371 -455 -575 -578 0
-1371 -456 728 0
-1371 -456 -575 -579 0
-1372 581 0
-1372 721 0
-1372 730 0
-1372 507 508 509 0
-1372 -516 0
-1372 -667 0
-1372 -513 726 0
-1372 -513 -572 -577 0
-1372 -514 727 0
-1372 -514 -572 -578 0
-1372 -515 728 0
-1372 -515 -572 -579 0
-1373 581 0
-1373 722 0
-1373 730 0
-1373 508 509 510 0
-1373 -516 0
-1373 -667 0
-1373 -513 726 0
-1373 -513 -573 -577 0
-1373 -514 727 0
-1373 -514 -573 -578 0
-1373 -515 728 0
-1373 -515 -573 -579 0
-1374 581 0
-1374 723 0
-1374 730 0
-1374 509 510 511 0
-1374 -516 0
-1374 -667 0
-1374 -513 726 0
-1374 -513 -574 -577 0
-1374 -514 727 0
-1374 -514 -574 -578 0
-1374 -515 728 0
-1374 -515 -574 -579 0
-1375 581 0
-1375 724 0
-1375 730 0
-1375 510 511 512 0
-1375 -516 0
-1375 -667 0
-1375 -513 726 0
-1375 -513 -575 -577 0
-1375 -514 727 0
-1375 -514 -575 -578 0
-1375 -515 728 0
-1375 -515 -575 -579 0
-1376 581 0
-1376 721 0
-1376 730 0
-1376 542 543 544 0
-1376 -550 0
-1376 -701 0
-1376 -547 726 0
-1376 -547 -572 -577 0
-1376 -548 727 0
-1376 -548 -572 -578 0
-1376 -549 728 0
-1376 -549 -572 -579 0
-1377 581 0
-1377 722 0
-1377 730 0
-1377 542 543 544 545 0
-1377 -550 0
-1377 -701 0
-1377 -547 726 0
-1377 -547 -573 -577 0
-1377 -548 727 0
-1377 -548 -573 -578 0
-1377 -549 728 0
-1377 -549 -573 -579 0
-1378 581 0
-1378 723 0
-1378 730 0
-1378 543 544 545 546 0
-1378 -550 0
-1378 -701 0
-1378 -547 726 0
-1378 -547 -574 -577 0
-1378 -548 727 0
-1378 -548 -574 -578 0
-1378 -549 728 0
-1378 -549 -574 -579 0
-1379 581 0
-1379 724 0
-1379 730 0
-1379 544 545 546 0
-1379 -550 0
-1379 -701 0
-1379 -547 726 0
-1379 -547 -575 -577 0
-1379 -548 727 0
-1379 -548 -575 -578 0
-1379 -549 728 0
-1379 -549 -575 -579 0
1296 1297 1298 1299 1300 1301 1302 1303 1304 1305 1306 1307 1308 1309 1310 1311 1312 1313 1314 1315 1316 1317 1318 1319 1320 1321 1322 1323 1324 1325 1326 1327 1328 1329 1330 1331 1332 1333 1334 1335 1336 1337 1338 1339 1340 1341 1342 1343 1344 1345 1346 1347 1348 1349 1350 1351 1352 1353 1354 1355 1356 1357 1358 1359 1360 1361 1362 1363 1364 1365 1366 1367 1368 1369 1370 1371 1372 1373 1374 1375 1376 1377 1378 1379 0
-1296 -1297 0
-1296 -1298 0
-1296 -1299 0
-1296 -1300 0
-1296 -1301 0
-1296 -1302 0
-1296 -1303 0
-1296 -1304 0
-1296 -1305 0
-1296 -1306 0
-1296 -1307 0
-1296 -1308 0
-1296 -1309 0
-1296 -1310 0
-1296 -1311 0
-1296 -1312 0
-1296 -1313 0
-1296 -1314 0
-1296 -1315 0
-1296 -1316 0
-1296 -1317 0
-1296 -1318 0
-1296 -1319 0
-1296 -1320 0
-1296 -1321 0
-1296 -1322 0
-1296 -1323 0
-1296 -1324 0
-1296 -1325 0
-1296 -1326 0
-1296 -1327 0
-1296 -1328 0
-1296 -1329 0
-1296 -1330 0
-1296 -1331 0
-1296 -1332 0
-1296 -1333 0
-1296 -1334 0
-1296 -1335 0
-1296 -1336 0
-1296 -1337 0
-1296 -1338 0
-1296 -1339 0
-1296 -1340 0
-1296 -1341 0
-1296 -1342 0
-1296 -1343 0
-1296 -1344 0
-1296 -1345 0
-1296 -1346 0
-1296 -1347 0
-1296 -1348 0
-1296 -1349 0
-1296 -1350 0
-1296 -1351 0
-1296 -1352 0
-1296 -1353 0
-1296 -1354 0
-1296 -1355 0
-1296 -1356 0
-1296 -1357 0
-1296 -1358 0
-1296 -1359 0
-1296 -1360 0
-1296 -1361 0
-1296 -1362 0
-1296 -1363 0
-1296 -1364 0
-1296 -1365 0
-1296 -1366 0
-1296 -1367 0
-1296 -1368 0
-1296 -1369 0
-1296 -1370 0
-1296 -1371 0
-1296 -1372 0
-1296 -1373 0
-1296 -1374 0
-1296 -1375 0
-1296 -1376 0
-1296 -1377 0
-1296 -1378 0
-1296 -1379 0
-1297 -1298 0
-1297 -1299 0
-1297 -1300 0
-1297 -1301 0
-1297 -1302 0
-1297 -1303 0
-1297 -1304 0
-1297 -1305 0
-1297 -1306 0
-1297 -1307 0
-1297 -1308 0
-1297 -1309 0
-1297 -1310 0
-1297 -1311 0
-1297 -1312 0
-1297 -1313 0
-1297 -1314 0
-1297 -1315 0
-1297 -1316 0
-1297 -1317 0
-1297 -1318 0
-1297 -1319 0
-1297 -1320 0
-1297 -1321 0
-1297 -1322 0
-1297 -1323 0
-1297 -1324 0
-1297 -1325 0
-1297 -1326 0
-1297 -1327 0
-1297 -1328 0
-1297 -1329 0
-1297 -1330 0
-1297 -1331 0
-1297 -1332 0
-1297 -1333 0
-1297 -1334 0
-1297 -1335 0
-1297 -1336 0
-1297 -1337 0
-1297 -1338 0
-1297 -1339 0
-1297 -1340 0
-1297 -1341 0
-1297 -1342 0
-1297 -1343 0
-1297 -1344 0
-1297 -1345 0
-1297 -1346 0
-1297 -1347 0
-1297 -1348 0
-1297 -1349 0
-1297 -1350 0
-1297 -1351 0
-1297 -1352 0
-1297 -1353 0
-1297 -1354 0
-1297 -1355 0
-1297 -1356 0
-1297 -1357 0
-1297 -1358 0
-1297 -1359 0
-1297 -1360 0
-1297 -1361 0
-1297 -1362 0
-1297 -1363 0
-1297 -1364 0
-1297 -1365 0
-1297 -1366 0
-1297 -1367 0
-1297 -1368 0
-1297 -1369 0
-1297 -1370 0
-1297 -1371 0
-1297 -1372 0
-1297 -1373 0
-1297 -1374 0
-1297 -1375 0
-1297 -1376 0
-1297 -1377 0
-1297 -1378 0
-1297 -1379 0
-1298 -1299 0
-1298 -1300 0
-1298 -1301 0
-1298 -1302 0
-1298 -1303 0
-1298 -1304 0
-1298 -1305 0
-1298 -1306 0
-1298 -1307 0
-1298 -1308 0
-1298 -1309 0
-1298 -1310 0
-1298 -1311 0
-1298 -1312 0
-1298 -1313 0
-1298 -1314 0
-1298 -1315 0
-1298 -1316 0
-1298 -1317 0
-1298 -1318 0
-1298 -1319 0
-1298 -1320 0
-1298 -1321 0
-1298 -1322 0
-1298 -1323 0
-1298 -1324 0
-1298 -1325 0
-1298 -1326 0
-1298 -1327 0
-1298 -1328 0
-1298 -1329 0
-1298 -1330 0
-1298 -1331 0
-1298 -1332 0
-1298 -1333 0
-1298 -1334 0
-1298 -1335 0
-1298 -1336 0
-1298 -1337 0
-1298 -1338 0
-1298 -1339 0
-1298 -1340 0
-1298 -1341 0
-1298 -1342 0
-1298 -1343 0
-1298 -1344 0
-1298 -1345 0
-1298 -1346 0
-1298 -1347 0
-1298 -1348 0
-1298 -1349 0
-1298 -1350 0
-1298 -1351 0
-1298 -1352 0
-1298 -1353 0
-1298 -1354 0
-1298 -1355 0
-1298 -1356 0
-1298 -1357 0
-1298 -1358 0
-1298 -1359 0
-1298 -1360 0
-1298 -1361 0
-1298 -1362 0
-1298 -1363 0
-1298 -1364 0
-1298 -1365 0
-1298 -1366 0
-1298 -1367 0
-1298 -1368 0
-1298 -1369 0
-1298 -1370 0
-1298 -1371 0
-1298 -1372 0
-1298 -1373 0
-1298 -1374 0
-1298 -1375 0
-1298 -1376 0
-1298 -1377 0
-1298 -1378 0
-1298 -1379 0
-1299 -1300 0
-1299 -1301 0
-1299 -1302 0
-1299 -1303 0
-1299 -1304 0
-1299 -1305 0
-1299 -1306 0
-1299 -1307 0
-1299 -1308 0
-1299 -1309 0
-1299 -1310 0
-1299 -1311 0
-1299 -1312 0
-1299 -1313 0
-1299 -1314 0
-1299 -1315 0
-1299 -1316 0
-1299 -1317 0
-1299 -1318 0
-1299 -1319 0
-1299 -1320 0
-1299 -1321 0
-1299 -1322 0
-1299 -1323 0
-1299 -1324 0
-1299 -1325 0
-1299 -1326 0
-1299 -1327 0
-1299 -1328 0
-1299 -1329 0
-1299 -1330 0
-1299 -1331 0
-1299 -1332 0
-1299 -1333 0
-1299 -1334 0
-1299 -1335 0
-1299 -1336 0
-1299 -1337 0
-1299 -1338 0
-1299 -1339 0
-1299 -1340 0
-1299 -1341 0
-1299 -1342 0
-1299 -1343 0
-1299 -1344 0
-1299 -1345 0
-1299 -1346 0
-1299 -1347 0
-1299 -1348 0
-1299 -1349 0
-1299 -1350 0
-1299 -1351 0
-1299 -1352 0
-1299 -1353 0
-1299 -1354 0
-1299 -1355 0
-1299 -1356 0
-1299 -1357 0
-1299 -1358 0
-1299 -1359 0
-1299 -1360 0
-1299 -1361 0
-1299 -1362 0
-1299 -1363 0
-1299 -1364 0
-1299 -1365 0
-1299 -1366 0
-1299 -1367 0
-1299 -1368 0
-1299 -1369 0
-1299 -1370 0
-1299 -1371 0
-1299 -1372 0
-1299 -1373 0
-1299 -1374 0
-1299 -1375 0
-1299 -1376 0
-1299 -1377 0
-1299 -1378 0
-1299 -1379 0
-1300 -1301 0
-1300 -1302 0
-1300 -1303 0
-1300 -1304 0
-1300 -1305 0
-1300 -1306 0
-1300 -1307 0
-1300 -1308 0
-1300 -1309 0
-1300 -1310 0
-1300 -1311 0
-1300 -1312 0
-1300 -1313 0
-1300 -1314 0
-1300 -1315 0
-1300 -1316 0
-1300 -1317 0
-1300 -1318 0
-1300 -1319 0
-1300 -1320 0
-1300 -1321 0
-1300 -1322 0
-1300 -1323 0
-1300 -1324 0
-1300 -1325 0
-1300 -1326 0
-1300 -1327 0
-1300 -1328 0
-1300 -1329 0
-1300 -1330 0
-1300 -1331 0
-1300 -1332 0
-1300 -1333 0
-1300 -1334 0
-1300 -1335 0
-1300 -1336 0
-1300 -1337 0
-1300 -1338 0
-1300 -1339 0
-1300 -1340 0
-1300 -1341 0
-1300 -1342 0
-1300 -1343 0
-1300 -1344 0
-1300 -1345 0
-1300 -1346 0
-1300 -1347 0
-1300 -1348 0
-1300 -1349 0
-1300 -1350 0
-1300 -1351 0
-1300 -1352 0
-1300 -1353 0
-1300 -1354 0
-1300 -1355 0
-1300 -1356 0
-1300 -1357 0
-1300 -1358 0
-1300 -1359 0
-1300 -1360 0
-1300 -1361 0
-1300 -1362 0
-1300 -1363 0
-1300 -1364 0
-1300 -1365 0
-1300 -1366 0
-1300 -1367 0
-1300 -1368 0
-1300 -1369 0
-1300 -1370 0
-1300 -1371 0
-1300 -1372 0
-1300 -1373 0
-1300 -1374 0
-1300 -1375 0
-1300 -1376 0
-1300 -1377 0
-1300 -1378 0
-1300 -1379 0
-1301 -1302 0
-1301 -1303 0
-1301 -1304 0
-1301 -1305 0
-1301 -1306 0
-1301 -1307 0
-1301 -1308 0
-1301 -1309 0
-1301 -1310 0
-1301 -1311 0
-1301 -1312 0
-1301 -1313 0
-1301 -1314 0
-1301 -1315 0
-1301 -1316 0
-1301 -1317 0
-1301 -1318 0
-1301 -1319 0
-1301 -1320 0
-1301 -1321 0
-1301 -1322 0
-1301 -1323 0
-1301 -1324 0
-1301 -1325 0
-1301 -1326 0
-1301 -1327 0
-1301 -1328 0
-1301 -1329 0
-1301 -1330 0
-1301 -1331 0
-1301 -1332 0
-1301 -1333 0
-1301 -1334 0
-1301 -1335 0
-1301 -1336 0
-1301 -1337 0
-1301 -1338 0
-1301 -1339 0
-1301 -1340 0
-1301 -1341 0
-1301 -1342 0
-1301 -1343 0
-1301 -1344 0
-1301 -1345 0
-1301 -1346 0
-1301 -1347 0
-1301 -1348 0
-1301 -1349 0
-1301 -1350 0
-1301 -1351 0
-1301 -1352 0
-1301 -1353 0
-1301 -1354 0
-1301 -1355 0
-1301 -1356 0
-1301 -1357 0
-1301 -1358 0
-1301 -1359 0
-1301 -1360 0
-1301 -1361 0
-1301 -1362 0
-1301 -1363 0
-1301 -1364 0
-1301 -1365 0
-1301 -1366 0
-1301 -1367 0
-1301 -1368 0
-1301 -1369 0
-1301 -1370 0
-1301 -1371 0
-1301 -1372 0
-1301 -1373 0
-1301 -1374 0
-1301 -1375 0
-1301 -1376 0
-1301 -1377 0
-1301 -1378 0
-1301 -1379 0
-1302 -1303 0
-1302 -1304 0
-1302 -1305 0
-1302 -1306 0
-1302 -1307 0
-1302 -1308 0
-1302 -1309 0
-1302 -1310 0
-1302 -1311 0
-1302 -1312 0
-1302 -1313 0
-1302 -1314 0
-1302 -1315 0
-1302 -1316 0
-1302 -1317 0
-1302 -1318 0
-1302 -1319 0
-1302 -1320 0
-1302 -1321 0
-1302 -1322 0
-1302 -1323 0
-1302 -1324 0
-1302 -1325 0
-1302 -1326 0
-1302 -1327 0
-1302 -1328 0
-1302 -1329 0
-1302 -1330 0
-1302 -1331 0
-1302 -1332 0
-1302 -1333 0
-1302 -1334 0
-1302 -1335 0
-1302 -1336 0
-1302 -1337 0
-1302 -1338 0
-1302 -1339 0
-1302 -1340 0
-1302 -1341 0
-1302 -1342 0
-1302 -1343 0
-1302 -1344 0
-1302 -1345 0
-1302 -1346 0
-1302 -1347 0
-1302 -1348 0
-1302 -1349 0
-1302 -1350 0
-1302 -1351 0
-1302 -1352 0
-1302 -1353 0
-1302 -1354 0
-1302 -1355 0
-1302 -1356 0
-1302 -1357 0
-1302 -1358 0
-1302 -1359 0
-1302 -1360 0
-1302 -1361 0
-1302 -1362 0
-1302 -1363 0
-1302 -1364 0
-1302 -1365 0
-1302 -1366 0
-1302 -1367 0
-1302 -1368 0
-1302 -1369 0
-1302 -1370 0
-1302 -1371 0
-1302 -1372 0
-1302 -1373 0
-1302 -1374 0
-1302 -1375 0
-1302 -1376 0
-1302 -1377 0
-1302 -1378 0
-1302 -1379 0
-1303 -1304 0
-1303 -1305 0
-1303 -1306 0
-1303 -1307 0
-1303 -1308 0
-1303 -1309 0
-1303 -1310 0
-1303 -1311 0
-1303 -1312 0
-1303 -1313 0
-1303 -1314 0
-1303 -1315 0
-1303 -1316 0
-1303 -1317 0
-1303 -1318 0
-1303 -1319 0
-1303 -1320 0
-1303 -1321 0
-1303 -1322 0
-1303 -1323 0
-1303 -1324 0
-1303 -1325 0
-1303 -1326 0
-1303 -1327 0
-1303 -1328 0
-1303 -1329 0
-1303 -1330 0
-1303 -1331 0
-1303 -1332 0
-1303 -1333 0
-1303 -1334 0
-1303 -1335 0
-1303 -1336 0
-1303 -1337 0
-1303 -1338 0
-1303 -1339 0
-1303 -1340 0
-1303 -1341 0
-1303 -1342 0
-1303 -1343 0
-1303 -1344 0
-1303 -1345 0
-1303 -1346 0
-1303 -1347 0
-1303 -1348 0
-1303 -1349 0
-1303 -1350 0
-1303 -1351 0
-1303 -1352 0
-1303 -1353 0
-1303 -1354 0
-1303 -1355 0
-1303 -1356 0
-1303 -1357 0
-1303 -1358 0
-1303 -1359 0
-1303 -1360 0
-1303 -1361 0
-1303 -1362 0
-1303 -1363 0
-1303 -1364 0
-1303 -1365 0
-1303 -1366 0
-1303 -1367 0
-1303 -1368 0
-1303 -1369 0
-1303 -1370 0
-1303 -1371 0
-1303 -1372 0
-1303 -1373 0
-1303 -1374 0
-1303 -1375 0
-1303 -1376 0
-1303 -1377 0
-1303 -1378 0
-1303 -1379 0
-1304 -1305 0
-1304 -1306 0
-1304 -1307 0
-1304 -1308 0
-1304 -1309 0
-1304 -1310 0
-1304 -1311 0
-1304 -1312 0
-1304 -1313 0
-1304 -1314 0
-1304 -1315 0
-1304 -1316 0
-1304 -1317 0
-1304 -1318 0
-1304 -1319 0
-1304 -1320 0
-1304 -1321 0
-1304 -1322 0
-1304 -1323 0
-1304 -1324 0
-1304 -1325 0
-1304 -1326 0
-1304 -1327 0
-1304 -1328 0
-1304 -1329 0
-1304 -1330 0
-1304 -1331 0
-1304 -1332 0
-1304 -1333 0
-1304 -1334 0
-1304 -1335 0
-1304 -1336 0
-1304 -1337 0
-1304 -1338 0
-1304 -1339 0
-1304 -1340 0
-1304 -1341 0
-1304 -1342 0
-1304 -1343 0
-1304 -1344 0
-1304 -1345 0
-1304 -1346 0
-1304 -1347 0
-1304 -1348 0
-1304 -1349 0
-1304 -1350 0
-1304 -1351 0
-1304 -1352 0
-1304 -1353 0
-1304 -1354 0
-1304 -1355 0
-1304 -1356 0
-1304 -1357 0
-1304 -1358 0
-1304 -1359 0
-1304 -1360 0
-1304 -1361 0
-1304 -1362 0
-1304 -1363 0
-1304 -1364 0
-1304 -1365 0
-1304 -1366 0
-1304 -1367 0
-1304 -1368 0
-1304 -1369 0
-1304 -1370 0
-1304 -1371 0
-1304 -1372 0
-1304 -1373 0
-1304 -1374 0
-1304 -1375 0
-1304 -1376 0
-1304 -1377 0
-1304 -1378 0
-1304 -1379 0
-1305 -1306 0
-1305 -1307 0
-1305 -1308 0
-1305 -1309 0
-1305 -1310 0
-1305 -1311 0
-1305 -1312 0
-1305 -1313 0
-1305 -1314 0
-1305 -1315 0
-1305 -1316 0
-1305 -1317 0
-1305 -1318 0
-1305 -1319 0
-1305 -1320 0
-1305 -1321 0
-1305 -1322 0
-1305 -1323 0
-1305 -1324 0
-1305 -1325 0
-1305 -1326 0
-1305 -1327 0
-1305 -1328 0
-1305 -1329 0
-1305 -1330 0
-1305 -1331 0
-1305 -1332 0
-1305 -1333 0
-1305 -1334 0
-1305 -1335 0
-1305 -1336 0
-1305 -1337 0
-1305 -1338 0
-1305 -1339 0
-1305 -1340 0
-1305 -1341 0
-1305 -1342 0
-1305 -1343 0
-1305 -1344 0
-1305 -1345 0
-1305 -1346 0
-1305 -1347 0
-1305 -1348 0
-1305 -1349 0
-1305 -1350 0
-1305 -1351 0
-1305 -1352 0
-1305 -1353 0
-1305 -1354 0
-1305 -1355 0
-1305 -1356 0
-1305 -1357 0
-1305 -1358 0
-1305 -1359 0
-1305 -1360 0
-1305 -1361 0
-1305 -1362 0
-1305 -1363 0
-1305 -1364 0
-1305 -1365 0
-1305 -1366 0
-1305 -1367 0
-1305 -1368 0
-1305 -1369 0
-1305 -1370 0
-1305 -1371 0
-1305 -1372 0
-1305 -1373 0
-1305 -1374 0
-1305 -1375 0
-1305 -1376 0
-1305 -1377 0
-1305 -1378 0
-1305 -1379 0
-1306 -1307 0
-1306 -1308 0
-1306 -1309 0
-1306 -1310 0
-1306 -1311 0
-1306 -1312 0
-1306 -1313 0
-1306 -1314 0
-1306 -1315 0
-1306 -1316 0
-1306 -1317 0
-1306 -1318 0
-1306 -1319 0
-1306 -1320 0
-1306 -1321 0
-1306 -1322 0
-1306 -1323 0
-1306 -1324 0
-1306 -1325 0
-1306 -1326 0
-1306 -1327 0
-1306 -1328 0
-1306 -1329 0
-1306 -1330 0
-1306 -1331 0
-1306 -1332 0
-1306 -1333 0
-1306 -1334 0
-1306 -1335 0
-1306 -1336 0
-1306 -1337 0
-1306 -1338 0
-1306 -1339 0
-1306 -1340 0
-1306 -1341 0
-1306 -1342 0
-1306 -1343 0
-1306 -1344 0
-1306 -1345 0
-1306 -1346 0
-1306 -1347 0
-1306 -1348 0
-1306 -1349 0
-1306 -1350 0
-1306 -1351 0
-1306 -1352 0
-1306 -1353 0
-1306 -1354 0
-1306 -1355 0
-1306 -1356 0
-1306 -1357 0
-1306 -1358 0
-1306 -1359 0
-1306 -1360 0
-1306 -1361 0
-1306 -1362 0
-1306 -1363 0
-1306 -1364 0
-1306 -1365 0
-1306 -1366 0
-1306 -1367 0
-1306 -1368 0
-1306 -1369 0
-1306 -1370 0
-1306 -1371 0
-1306 -1372 0
-1306 -1373 0
-1306 -1374 0
-1306 -1375 0
-1306 -1376 0
-1306 -1377 0
-1306 -1378 0
-1306 -1379 0
-1307 -1308 0
-1307 -1309 0
-1307 -1310 0
-1307 -1311 0
-1307 -1312 0
-1307 -1313 0
-1307 -1314 0
-1307 -1315 0
-1307 -1316 0
-1307 -1317 0
-1307 -1318 0
-1307 -1319 0
-1307 -1320 0
-1307 -1321 0
-1307 -1322 0
-1307 -1323 0
-1307 -1324 0
-1307 -1325 0
-1307 -1326 0
-1307 -1327 0
-1307 -1328 0
-1307 -1329 0
-1307 -1330 0
-1307 -1331 0
-1307 -1332 0
-1307 -1333 0
-1307 -1334 0
-1307 -1335 0
-1307 -1336 0
-1307 -1337 0
-1307 -1338 0
-1307 -1339 0
-1307 -1340 0
-1307 -1341 0
-1307 -1342 0
-1307 -1343 0
-1307 -1344 0
-1307 -1345 0
-1307 -1346 0
-1307 -1347 0
-1307 -1348 0
-1307 -1349 0
-1307 -1350 0
-1307 -1351 0
-1307 -1352 0
-1307 -1353 0
-1307 -1354 0
-1307 -1355 0
-1307 -1356 0
-1307 -1357 0
-1307 -1358 0
-1307 -1359 0
-1307 -1360 0
-1307 -1361 0
-1307 -1362 0
-1307 -1363 0
-1307 -1364 0
-1307 -1365 0
-1307 -1366 0
-1307 -1367 0
-1307 -1368 0
-1307 -1369 0
-1307 -1370 0
-1307 -1371 0
-1307 -1372 0
-1307 -1373 0
-1307 -1374 0
-1307 -1375 0
-1307 -1376 0
-1307 -1377 0
-1307 -1378 0
-1307 -1379 0
-1308 -1309 0
-1308 -1310 0
-1308 -1311 0
-1308 -1312 0
-1308 -1313 0
-1308 -1314 0
-1308 -1315 0
-1308 -1316 0
-1308 -1317 0
-1308 -1318 0
-1308 -1319 0
-1308 -1320 0
-1308 -1321 0
-1308 -1322 0
-1308 -1323 0
-1308 -1324 0
-1308 -1325 0
-1308 -1326 0
-1308 -1327 0
-1308 -1328 0
-1308 -1329 0
-1308 -1330 0
-1308 -1331 0
-1308 -1332 0
-1308 -1333 0
-1308 -1334 0
-1308 -1335 0
-1308 -1336 0
-1308 -1337 0
-1308 -1338 0
-1308 -1339 0
-1308 -1340 0
-1308 -1341 0
-1308 -1342 0
-1308 -1343 0
-1308 -1344 0
-1308 -1345 0
-1308 -1346 0
-1308 -1347 0
-1308 -1348 0
-1308 -1349 0
-1308 -1350 0
-1308 -1351 0
-1308 -1352 0
-1308 -1353 0
-1308 -1354 0
-1308 -1355 0
-1308 -1356 0
-1308 -1357 0
-1308 -1358 0
-1308 -1359 0
-1308 -1360 0
-1308 -1361 0
-1308 -1362 0
-1308 -1363 0
-1308 -1364 0
-1308 -1365 0
-1308 -1366 0
-1308 -1367 0
-1308 -1368 0
-1308 -1369 0
-1308 -1370 0
-1308 -1371 0
-1308 -1372 0
-1308 -1373 0
-1308 -1374 0
-1308 -1375 0
-1308 -1376 0
-1308 -1377 0
-1308 -1378 0
-1308 -1379 0
-1309 -1310 0
-1309 -1311 0
-1309 -1312 0
-1309 -1313 0
-1309 -1314 0
-1309 -1315 0
-1309 -1316 0
-1309 -1317 0
-1309 -1318 0
-1309 -1319 0
-1309 -1320 0
-1309 -1321 0
-1309 -1322 0
-1309 -1323 0
-1309 -1324 0
-1309 -1325 0
-1309 -1326 0
-1309 -1327 0
-1309 -1328 0
-1309 -1329 0
-1309 -1330 0
-1309 -1331 0
-1309 -1332 0
-1309 -1333 0
-1309 -1334 0
-1309 -1335 0
-1309 -1336 0
-1309 -1337 0
-1309 -1338 0
-1309 -1339 0
-1309 -1340 0
-1309 -1341 0
-1309 -1342 0
-1309 -1343 0
-1309 -1344 0
-1309 -1345 0
-1309 -1346 0
-1309 -1347 0
-1309 -1348 0
-1309 -1349 0
-1309 -1350 0
-1309 -1351 0
-1309 -1352 0
-1309 -1353 0
-1309 -1354 0
-1309 -1355 0
-1309 -1356 0
-1309 -1357 0
-1309 -1358 0
-1309 -1359 0
-1309 -1360 0
-1309 -1361 0
-1309 -1362 0
-1309 -1363 0
-1309 -1364 0
-1309 -1365 0
-1309 -1366 0
-1309 -1367 0
-1309 -1368 0
-1309 -1369 0
-1309 -1370 0
-1309 -1371 0
-1309 -1372 0
-1309 -1373 0
-1309 -1374 0
-1309 -1375 0
-1309 -1376 0
-1309 -1377 0
-1309 -1378 0
-1309 -1379 0
-1310 -1311 0
-1310 -1312 0
-1310 -1313 0
-1310 -1314 0
-1310 -1315 0
-1310 -1316 0
-1310 -1317 0
-1310 -1318 0
-1310 -1319 0
-1310 -1320 0
-1310 -1321 0
-1310 -1322 0
-1310 -1323 0
-1310 -1324 0
-1310 -1325 0
-1310 -1326 0
-1310 -1327 0
-1310 -1328 0
-1310 -1329 0
-1310 -1330 0
-1310 -1331 0
-1310 -1332 0
-1310 -1333 0
-1310 -1334 0
-1310 -1335 0
-1310 -1336 0
-1310 -1337 0
-1310 -1338 0
-1310 -1339 0
-1310 -1340 0
-1310 -1341 0
-1310 -1342 0
-1310 -1343 0
-1310 -1344 0
-1310 -1345 0
-1310 -1346 0
-1310 -1347 0
-1310 -1348 0
-1310 -1349 0
-1310 -1350 0
-1310 -1351 0
-1310 -1352 0
-1310 -1353 0
-1310 -1354 0
-1310 -1355 0
-1310 -1356 0
-1310 -1357 0
-1310 -1358 0
-1310 -1359 0
-1310 -1360 0
-1310 -1361 0
-1310 -1362 0
-1310 -1363 0
-1310 -1364 0
-1310 -1365 0
-1310 -1366 0
-1310 -1367 0
-1310 -1368 0
-1310 -1369 0
-1310 -1370 0
-1310 -1371 0
-1310 -1372 0
-1310 -1373 0
-1310 -1374 0
-1310 -1375 0
-1310 -1376 0
-1310 -1377 0
-1310 -1378 0
-1310 -1379 0
-1311 -1312 0
-1311 -1313 0
-1311 -1314 0
-1311 -1315 0
-1311 -1316 0
-1311 -1317 0
-1311 -1318 0
-1311 -1319 0
-1311 -1320 0
-1311 -1321 0
-1311 -1322 0
-1311 -1323 0
-1311 -1324 0
-1311 -1325 0
-1311 -1326 0
-1311 -1327 0
-1311 -1328 0
-1311 -1329 0
-1311 -1330 0
-1311 -1331 0
-1311 -1332 0
-1311 -1333 0
-1311 -1334 0
-1311 -1335 0
-1311 -1336 0
-1311 -1337 0
-1311 -1338 0
-1311 -1339 0
-1311 -1340 0
-1311 -1341 0
-1311 -1342 0
-1311 -1343 0
-1311 -1344 0
-1311 -1345 0
-1311 -1346 0
-1311 -1347 0
-1311 -1348 0
-1311 -1349 0
-1311 -1350 0
-1311 -1351 0
-1311 -1352 0
-1311 -1353 0
-1311 -1354 0
-1311 -1355 0
-1311 -1356 0
-1311 -1357 0
-1311 -1358 0
-1311 -1359 0
-1311 -1360 0
-1311 -1361 0
-1311 -1362 0
-1311 -1363 0
-1311 -1364 0
-1311 -1365 0
-1311 -1366 0
-1311 -1367 0
-1311 -1368 0
-1311 -1369 0
-1311 -1370 0
-1311 -1371 0
-1311 -1372 0
-1311 -1373 0
-1311 -1374 0
-1311 -1375 0
-1311 -1376 0
-1311 -1377 0
-1311 -1378 0
-1311 -1379 0
-1312 -1313 0
-1312 -1314 0
-1312 -1315 0
-1312 -1316 0
-1312 -1317 0
-1312 -1318 0
-1312 -1319 0
-1312 -1320 0
-1312 -1321 0
-1312 -1322 0
-1312 -1323 0
-1312 -1324 0
-1312 -1325 0
-1312 -1326 0
-1312 -1327 0
-1312 -1328 0
-1312 -1329 0
-1312 -1330 0
-1312 -1331 0
-1312 -1332 0
-1312 -1333 0
-1312 -1334 0
-1312 -1335 0
-1312 -1336 0
-1312 -1337 0
-1312 -1338 0
-1312 -1339 0
-1312 -1340 0
-1312 -1341 0
-1312 -1342 0
-1312 -1343 0
-1312 -1344 0
-1312 -1345 0
-1312 -1346 0
-1312 -1347 0
-1312 -1348 0
-1312 -1349 0
-1312 -1350 0
-1312 -1351 0
-1312 -1352 0
-1312 -1353 0
-1312 -1354 0
-1312 -1355 0
-1312 -1356 0
-1312 -1357 0
-1312 -1358 0
-1312 -1359 0
-1312 -1360 0
-1312 -1361 0
-1312 -1362 0
-1312 -1363 0
-1312 -1364 0
-1312 -1365 0
-1312 -1366 0
-1312 -1367 0
-1312 -1368 0
-1312 -1369 0
-1312 -1370 0
-1312 -1371 0
-1312 -1372 0
-1312 -1373 0
-1312 -1374 0
-1312 -1375 0
-1312 -1376 0
-1312 -1377 0
-1312 -1378 0
-1312 -1379 0
-1313 -1314 0
-1313 -1315 0
-1313 -1316 0
-1313 -1317 0
-1313 -1318 0
-1313 -1319 0
-1313 -1320 0
-1313 -1321 0
-1313 -1322 0
-1313 -1323 0
-1313 -1324 0
-1313 -1325 0
-1313 -1326 0
-1313 -1327 0
-1313 -1328 0
-1313 -1329 0
-1313 -1330 0
-1313 -1331 0
-1313 -1332 0
-1313 -1333 0
-1313 -1334 0
-1313 -1335 0
-1313 -1336 0
-1313 -1337 0
-1313 -1338 0
-1313 -1339 0
-1313 -1340 0
-1313 -1341 0
-1313 -1342 0
-1313 -1343 0
-1313 -1344 0
-1313 -1345 0
-1313 -1346 0
-1313 -1347 0
-1313 -1348 0
-1313 -1349 0
-1313 -1350 0
-1313 -1351 0
-1313 -1352 0
-1313 -1353 0
-1313 -1354 0
-1313 -1355 0
-1313 -1356 0
-1313 -1357 0
-1313 -1358 0
-1313 -1359 0
-1313 -1360 0
-1313 -1361 0
-1313 -1362 0
-1313 -1363 0
-1313 -1364 0
-1313 -1365 0
-1313 -1366 0
-1313 -1367 0
-1313 -1368 0
-1313 -1369 0
-1313 -1370 0
-1313 -1371 0
-1313 -1372 0
-1313 -1373 0
-1313 -1374 0
-1313 -1375 0
-1313 -1376 0
-1313 -1377 0
-1313 -1378 0
-1313 -1379 0
-1314 -1315 0
-1314 -1316 0
-1314 -1317 0
-1314 -1318 0
-1314 -1319 0
-1314 -1320 0
-1314 -1321 0
-1314 -1322 0
-1314 -1323 0
-1314 -1324 0
-1314 -1325 0
-1314 -1326 0
-1314 -1327 0
-1314 -1328 0
-1314 -1329 0
-1314 -1330 0
-1314 -1331 0
-1314 -1332 0
-1314 -1333 0
-1314 -1334 0
-1314 -1335 0
-1314 -1336 0
-1314 -1337 0
-1314 -1338 0
-1314 -1339 0
-1314 -1340 0
-1314 -1341 0
-1314 -1342 0
-1314 -1343 0
-1314 -1344 0
-1314 -1345 0
-1314 -1346 0
-1314 -1347 0
-1314 -1348 0
-1314 -1349 0
-1314 -1350 0
-1314 -1351 0
-1314 -1352 0
-1314 -1353 0
-1314 -1354 0
-1314 -1355 0
-1314 -1356 0
-1314 -1357 0
-1314 -1358 0
-1314 -1359 0
-1314 -1360 0
-1314 -1361 0
-1314 -1362 0
-1314 -1363 0
-1314 -1364 0
-1314 -1365 0
-1314 -1366 0
-1314 -1367 0
-1314 -1368 0
-1314 -1369 0
-1314 -1370 0
-1314 -1371 0
-1314 -1372 0
-1314 -1373 0
-1314 -1374 0
-1314 -1375 0
-1314 -1376 0
-1314 -1377 0
-1314 -1378 0
-1314 -1379 0
-1315 -1316 0
-1315 -1317 0
-1315 -1318 0
-1315 -1319 0
-1315 -1320 0
-1315 -1321 0
-1315 -1322 0
-1315 -1323 0
-1315 -1324 0
-1315 -1325 0
-1315 -1326 0
-1315 -1327 0
-1315 -1328 0
-1315 -1329 0
-1315 -1330 0
-1315 -1331 0
-1315 -1332 0
-1315 -1333 0
-1315 -1334 0
-1315 -1335 0
-1315 -1336 0
-1315 -1337 0
-1315 -1338 0
-1315 -1339 0
-1315 -1340 0
-1315 -1341 0
-1315 -1342 0
-1315 -1343 0
-1315 -1344 0
-1315 -1345 0
-1315 -1346 0
-1315 -1347 0
-1315 -1348 0
-1315 -1349 0
-1315 -1350 0
-1315 -1351 0
-1315 -1352 0
-1315 -1353 0
-1315 -1354 0
-1315 -1355 0
-1315 -1356 0
-1315 -1357 0
-1315 -1358 0
-1315 -1359 0
-1315 -1360 0
-1315 -1361 0
-1315 -1362 0
-1315 -1363 0
-1315 -1364 0
-1315 -1365 0
-1315 -1366 0
-1315 -1367 0
-1315 -1368 0
-1315 -1369 0
-1315 -1370 0
-1315 -1371 0
-1315 -1372 0
-1315 -1373 0
-1315 -1374 0
-1315 -1375 0
-1315 -1376 0
-1315 -1377 0
-1315 -1378 0
-1315 -1379 0
-1316 -1317 0
-1316 -1318 0
-1316 -1319 0
-1316 -1320 0
-1316 -1321 0
-1316 -1322 0
-1316 -1323 0
-1316 -1324 0
-1316 -1325 0
-1316 -1326 0
-1316 -1327 0
-1316 -1328 0
-1316 -1329 0
-1316 -1330 0
-1316 -1331 0
-1316 -1332 0
-1316 -1333 0
-1316 -1334 0
-1316 -1335 0
-1316 -1336 0
-1316 -1337 0
-1316 -1338 0
-1316 -1339 0
-1316 -1340 0
-1316 -1341 0
-1316 -1342 0
-1316 -1343 0
-1316 -1344 0
-1316 -1345 0
-1316 -1346 0
-1316 -1347 0
-1316 -1348 0
-1316 -1349 0
-1316 -1350 0
-1316 -1351 0
-1316 -1352 0
-1316 -1353 0
-1316 -1354 0
-1316 -1355 0
-1316 -1356 0
-1316 -1357 0
-1316 -1358 0
-1316 -1359 0
-1316 -1360 0
-1316 -1361 0
-1316 -1362 0
-1316 -1363 0
-1316 -1364 0
-1316 -1365 0
-1316 -1366 0
-1316 -1367 0
-1316 -1368 0
-1316 -1369 0
-1316 -1370 0
-1316 -1371 0
-1316 -1372 0
-1316 -1373 0
-1316 -1374 0
-1316 -1375 0
-1316 -1376 0
-1316 -1377 0
-1316 -1378 0
-1316 -1379 0
-1317 -1318 0
-1317 -1319 0
-1317 -1320 0
-1317 -1321 0
-1317 -1322 0
-1317 -1323 0
-1317 -1324 0
-1317 -1325 0
-1317 -1326 0
-1317 -1327 0
-1317 -1328 0
-1317 -1329 0
-1317 -1330 0
-1317 -1331 0
-1317 -1332 0
-1317 -1333 0
-1317 -1334 0
-1317 -1335 0
-1317 -1336 0
-1317 -1337 0
-1317 -1338 0
-1317 -1339 0
-1317 -1340 0
-1317 -1341 0
-1317 -1342 0
-1317 -1343 0
-1317 -1344 0
-1317 -1345 0
-1317 -1346 0
-1317 -1347 0
-1317 -1348 0
-1317 -1349 0
-1317 -1350 0
-1317 -1351 0
-1317 -1352 0
-1317 -1353 0
-1317 -1354 0
-1317 -1355 0
-1317 -1356 0
-1317 -1357 0
-1317 -1358 0
-1317 -1359 0
-1317 -1360 0
-1317 -1361 0
-1317 -1362 0
-1317 -1363 0
-1317 -1364 0
-1317 -1365 0
-1317 -1366 0
-1317 -1367 0
-1317 -1368 0
-1317 -1369 0
-1317 -1370 0
-1317 -1371 0
-1317 -1372 0
-1317 -1373 0
-1317 -1374 0
-1317 -1375 0
-1317 -1376 0
-1317 -1377 0
-1317 -1378 0
-1317 -1379 0
-1318 -1319 0
-1318 -1320 0
-1318 -1321 0
-1318 -1322 0
-1318 -1323 0
-1318 -1324 0
-1318 -1325 0
-1318 -1326 0
-1318 -1327 0
-1318 -1328 0
-1318 -1329 0
-1318 -1330 0
-1318 -1331 0
-1318 -1332 0
-1318 -1333 0
-1318 -1334 0
-1318 -1335 0
-1318 -1336 0
-1318 -1337 0
-1318 -1338 0
-1318 -1339 0
-1318 -1340 0
-1318 -1341 0
-1318 -1342 0
-1318 -1343 0
-1318 -1344 0
-1318 -1345 0
-1318 -1346 0
-1318 -1347 0
-1318 -1348 0
-1318 -1349 0
-1318 -1350 0
-1318 -1351 0
-1318 -1352 0
-1318 -1353 0
-1318 -1354 0
-1318 -1355 0
-1318 -1356 0
-1318 -1357 0
-1318 -1358 0
-1318 -1359 0
-1318 -1360 0
-1318 -1361 0
-1318 -1362 0
-1318 -1363 0
-1318 -1364 0
-1318 -1365 0
-1318 -1366 0
-1318 -1367 0
-1318 -1368 0
-1318 -1369 0
-1318 -1370 0
-1318 -1371 0
-1318 -1372 0
-1318 -1373 0
-1318 -1374 0
-1318 -1375 0
-1318 -1376 0
-1318 -1377 0
-1318 -1378 0
-1318 -1379 0
-1319 -1320 0
-1319 -1321 0
-1319 -1322 0
-1319 -1323 0
-1319 -1324 0
-1319 -1325 0
-1319 -1326 0
-1319 -1327 0
-1319 -1328 0
-1319 -1329 0
-1319 -1330 0
-1319 -1331 0
-1319 -1332 0
-1319 -1333 0
-1319 -1334 0
-1319 -1335 0
-1319 -1336 0
-1319 -1337 0
-1319 -1338 0
-1319 -1339 0
-1319 -1340 0
-1319 -1341 0
-1319 -1342 0
-1319 -1343 0
-1319 -1344 0
-1319 -1345 0
-1319 -1346 0
-1319 -1347 0
-1319 -1348 0
-1319 -1349 0
-1319 -1350 0
-1319 -1351 0
-1319 -1352 0
-1319 -1353 0
-1319 -1354 0
-1319 -1355 0
-1319 -1356 0
-1319 -1357 0
-1319 -1358 0
-1319 -1359 0
-1319 -1360 0
-1319 -1361 0
-1319 -1362 0
-1319 -1363 0
-1319 -1364 0
-1319 -1365 0
-1319 -1366 0
-1319 -1367 0
-1319 -1368 0
-1319 -1369 0
-1319 -1370 0
-1319 -1371 0
-1319 -1372 0
-1319 -1373 0
-1319 -1374 0
-1319 -1375 0
-1319 -1376 0
-1319 -1377 0
-1319 -1378 0
-1319 -1379 0
-1320 -1321 0
-1320 -1322 0
-1320 -1323 0
-1320 -1324 0
-1320 -1325 0
-1320 -1326 0
-1320 -1327 0
-1320 -1328 0
-1320 -1329 0
-1320 -1330 0
-1320 -1331 0
-1320 -1332 0
-1320 -1333 0
-1320 -1334 0
-1320 -1335 0
-1320 -1336 0
-1320 -1337 0
-1320 -1338 0
-1320 -1339 0
-1320 -1340 0
-1320 -1341 0
-1320 -1342 0
-1320 -1343 0
-1320 -1344 0
-1320 -1345 0
-1320 -1346 0
-1320 -1347 0
-1320 -1348 0
-1320 -1349 0
-1320 -1350 0
-1320 -1351 0
-1320 -1352 0
-1320 -1353 0
-1320 -1354 0
-1320 -1355 0
-1320 -1356 0
-1320 -1357 0
-1320 -1358 0
-1320 -1359 0
-1320 -1360 0
-1320 -1361 0
-1320 -1362 0
-1320 -1363 0
-1320 -1364 0
-1320 -1365 0
-1320 -1366 0
-1320 -1367 0
-1320 -1368 0
-1320 -1369 0
-1320 -1370 0
-1320 -1371 0
-1320 -1372 0
-1320 -1373 0
-1320 -1374 0
-1320 -1375 0
-1320 -1376 0
-1320 -1377 0
-1320 -1378 0
-1320 -1379 0
-1321 -1322 0
-1321 -1323 0
-1321 -1324 0
-1321 -1325 0
-1321 -1326 0
-1321 -1327 0
-1321 -1328 0
-1321 -1329 0
-1321 -1330 0
-1321 -1331 0
-1321 -1332 0
-1321 -1333 0
-1321 -1334 0
-1321 -1335 0
-1321 -1336 0
-1321 -1337 0
-1321 -1338 0
-1321 -1339 0
-1321 -1340 0
-1321 -1341 0
-1321 -1342 0
-1321 -1343 0
-1321 -1344 0
-1321 -1345 0
-1321 -1346 0
-1321 -1347 0
-1321 -1348 0
-1321 -1349 0
-1321 -1350 0
-1321 -1351 0
-1321 -1352 0
-1321 -1353 0
-1321 -1354 0
-1321 -1355 0
-1321 -1356 0
-1321 -1357 0
-1321 -1358 0
-1321 -1359 0
-1321 -1360 0
-1321 -1361 0
-1321 -1362 0
-1321 -1363 0
-1321 -1364 0
-1321 -1365 0
-1321 -1366 0
-1321 -1367 0
-1321 -1368 0
-1321 -1369 0
-1321 -1370 0
-1321 -1371 0
-1321 -1372 0
-1321 -1373 0
-1321 -1374 0
-1321 -1375 0
-1321 -1376 0
-1321 -1377 0
-1321 -1378 0
-1321 -1379 0
-1322 -1323 0
-1322 -1324 0
-1322 -1325 0
-1322 -1326 0
-1322 -1327 0
-1322 -1328 0
-1322 -1329 0
-1322 -1330 0
-1322 -1331 0
-1322 -1332 0
-1322 -1333 0
-1322 -1334 0
-1322 -1335 0
-1322 -1336 0
-1322 -1337 0
-1322 -1338 0
-1322 -1339 0
-1322 -1340 0
-1322 -1341 0
-1322 -1342 0
-1322 -1343 0
-1322 -1344 0
-1322 -1345 0
-1322 -1346 0
-1322 -1347 0
-1322 -1348 0
-1322 -1349 0
-1322 -1350 0
-1322 -1351 0
-1322 -1352 0
-1322 -1353 0
-1322 -1354 0
-1322 -1355 0
-1322 -1356 0
-1322 -1357 0
-1322 -1358 0
-1322 -1359 0
-1322 -1360 0
-1322 -1361 0
-1322 -1362 0
-1322 -1363 0
-1322 -1364 0
-1322 -1365 0
-1322 -1366 0
-1322 -1367 0
-1322 -1368 0
-1322 -1369 0
-1322 -1370 0
-1322 -1371 0
-1322 -1372 0
-1322 -1373 0
-1322 -1374 0
-1322 -1375 0
-1322 -1376 0
-1322 -1377 0
-1322 -1378 0
-1322 -1379 0
-1323 -1324 0
-1323 -1325 0
-1323 -1326 0
-1323 -1327 0
-1323 -1328 0
-1323 -1329 0
-1323 -1330 0
-1323 -1331 0
-1323 -1332 0
-1323 -1333 0
-1323 -1334 0
-1323 -1335 0
-1323 -1336 0
-1323 -1337 0
-1323 -1338 0
-1323 -1339 0
-1323 -1340 0
-1323 -1341 0
-1323 -1342 0
-1323 -1343 0
-1323 -1344 0
-1323 -1345 0
-1323 -1346 0
-1323 -1347 0
-1323 -1348 0
-1323 -1349 0
-1323 -1350 0
-1323 -1351 0
-1323 -1352 0
-1323 -1353 0
-1323 -1354 0
-1323 -1355 0
-1323 -1356 0
-1323 -1357 0
-1323 -1358 0
-1323 -1359 0
-1323 -1360 0
-1323 -1361 0
-1323 -1362 0
-1323 -1363 0
-1323 -1364 0
-1323 -1365 0
-1323 -1366 0
-1323 -1367 0
-1323 -1368 0
-1323 -1369 0
-1323 -1370 0
-1323 -1371 0
-1323 -1372 0
-1323 -1373 0
-1323 -1374 0
-1323 -1375 0
-1323 -1376 0
-1323 -1377 0
-1323 -1378 0
-1323 -1379 0
-1324 -1325 0
-1324 -1326 0
-1324 -1327 0
-1324 -1328 0
-1324 -1329 0
-1324 -1330 0
-1324 -1331 0
-1324 -1332 0
-1324 -1333 0
-1324 -1334 0
-1324 -1335 0
-1324 -1336 0
-1324 -1337 0
-1324 -1338 0
-1324 -1339 0
-1324 -1340 0
-1324 -1341 0
-1324 -1342 0
-1324 -1343 0
-1324 -1344 0
-1324 -1345 0
-1324 -1346 0
-1324 -1347 0
-1324 -1348 0
-1324 -1349 0
-1324 -1350 0
-1324 -1351 0
-1324 -1352 0
-1324 -1353 0
-1324 -1354 0
-1324 -1355 0
-1324 -1356 0
-1324 -1357 0
-1324 -1358 0
-1324 -1359 0
-1324 -1360 0
-1324 -1361 0
-1324 -1362 0
-1324 -1363 0
-1324 -1364 0
-1324 -1365 0
-1324 -1366 0
-1324 -1367 0
-1324 -1368 0
-1324 -1369 0
-1324 -1370 0
-1324 -1371 0
-1324 -1372 0
-1324 -1373 0
-1324 -1374 0
-1324 -1375 0
-1324 -1376 0
-1324 -1377 0
-1324 -1378 0
-1324 -1379 0
-1325 -1326 0
-1325 -1327 0
-1325 -1328 0
-1325 -1329 0
-1325 -1330 0
-1325 -1331 0
-1325 -1332 0
-1325 -1333 0
-1325 -1334 0
-1325 -1335 0
-1325 -1336 0
-1325 -1337 0
-1325 -1338 0
-1325 -1339 0
-1325 -1340 0
-1325 -1341 0
-1325 -1342 0
-1325 -1343 0
-1325 -1344 0
-1325 -1345 0
-1325 -1346 0
-1325 -1347 0
-1325 -1348 0
-1325 -1349 0
-1325 -1350 0
-1325 -1351 0
-1325 -1352 0
-1325 -1353 0
-1325 -1354 0
-1325 -1355 0
-1325 -1356 0
-1325 -1357 0
-1325 -1358 0
-1325 -1359 0
-1325 -1360 0
-1325 -1361 0
-1325 -1362 0
-1325 -1363 0
-1325 -1364 0
-1325 -1365 0
-1325 -1366 0
-1325 -1367 0
-1325 -1368 0
-1325 -1369 0
-1325 -1370 0
-1325 -1371 0
-1325 -1372 0
-1325 -1373 0
-1325 -1374 0
-1325 -1375 0
-1325 -1376 0
-1325 -1377 0
-1325 -1378 0
-1325 -1379 0
-1326 -1327 0
-1326 -1328 0
-1326 -1329 0
-1326 -1330 0
-1326 -1331 0
-1326 -1332 0
-1326 -1333 0
-1326 -1334 0
-1326 -1335 0
-1326 -1336 0
-1326 -1337 0
-1326 -1338 0
-1326 -1339 0
-1326 -1340 0
-1326 -1341 0
-1326 -1342 0
-1326 -1343 0
-1326 -1344 0
-1326 -1345 0
-1326 -1346 0
-1326 -1347 0
-1326 -1348 0
-1326 -1349 0
-1326 -1350 0
-1326 -1351 0
-1326 -1352 0
-1326 -1353 0
-1326 -1354 0
-1326 -1355 0
-1326 -1356 0
-1326 -1357 0
-1326 -1358 0
-1326 -1359 0
-1326 -1360 0
-1326 -1361 0
-1326 -1362 0
-1326 -1363 0
-1326 -1364 0
-1326 -1365 0
-1326 -1366 0
-1326 -1367 0
-1326 -1368 0
-1326 -1369 0
-1326 -1370 0
-1326 -1371 0
-1326 -1372 0
-1326 -1373 0
-1326 -1374 0
-1326 -1375 0
-1326 -1376 0
-1326 -1377 0
-1326 -1378 0
-1326 -1379 0
-1327 -1328 0
-1327 -1329 0
-1327 -1330 0
-1327 -1331 0
-1327 -1332 0
-1327 -1333 0
-1327 -1334 0
-1327 -1335 0
-1327 -1336 0
-1327 -1337 0
-1327 -1338 0
-1327 -1339 0
-1327 -1340 0
-1327 -1341 0
-1327 -1342 0
-1327 -1343 0
-1327 -1344 0
-1327 -1345 0
-1327 -1346 0
-1327 -1347 0
-1327 -1348 0
-1327 -1349 0
-1327 -1350 0
-1327 -1351 0
-1327 -1352 0
-1327 -1353 0
-1327 -1354 0
-1327 -1355 0
-1327 -1356 0
-1327 -1357 0
-1327 -1358 0
-1327 -1359 0
-1327 -1360 0
-1327 -1361 0
-1327 -1362 0
-1327 -1363 0
-1327 -1364 0
-1327 -1365 0
-1327 -1366 0
-1327 -1367 0
-1327 -1368 0
-1327 -1369 0
-1327 -1370 0
-1327 -1371 0
-1327 -1372 0
-1327 -1373 0
-1327 -1374 0
-1327 -1375 0
-1327 -1376 0
-1327 -1377 0
-1327 -1378 0
-1327 -1379 0
-1328 -1329 0
-1328 -1330 0
-1328 -1331 0
-1328 -1332 0
-1328 -1333 0
-1328 -1334 0
-1328 -1335 0
-1328 -1336 0
-1328 -1337 0
-1328 -1338 0
-1328 -1339 0
-1328 -1340 0
-1328 -1341 0
-1328 -1342 0
-1328 -1343 0
-1328 -1344 0
-1328 -1345 0
-1328 -1346 0
-1328 -1347 0
-1328 -1348 0
-1328 -1349 0
-1328 -1350 0
-1328 -1351 0
-1328 -1352 0
-1328 -1353 0
-1328 -1354 0
-1328 -1355 0
-1328 -1356 0
-1328 -1357 0
-1328 -1358 0
-1328 -1359 0
-1328 -1360 0
-1328 -1361 0
-1328 -1362 0
-1328 -1363 0
-1328 -1364 0
-1328 -1365 0
-1328 -1366 0
-1328 -1367 0
-1328 -1368 0
-1328 -1369 0
-1328 -1370 0
-1328 -1371 0
-1328 -1372 0
-1328 -1373 0
-1328 -1374 0
-1328 -1375 0
-1328 -1376 0
-1328 -1377 0
-1328 -1378 0
-1328 -1379 0
-1329 -1330 0
-1329 -1331 0
-1329 -1332 0
-1329 -1333 0
-1329 -1334 0
-1329 -1335 0
-1329 -1336 0
-1329 -1337 0
-1329 -1338 0
-1329 -1339 0
-1329 -1340 0
-1329 -1341 0
-1329 -1342 0
-1329 -1343 0
-1329 -1344 0
-1329 -1345 0
-1329 -1346 0
-1329 -1347 0
-1329 -1348 0
-1329 -1349 0
-1329 -1350 0
-1329 -1351 0
-1329 -1352 0
-1329 -1353 0
-1329 -1354 0
-1329 -1355 0
-1329 -1356 0
-1329 -1357 0
-1329 -1358 0
-1329 -1359 0
-1329 -1360 0
-1329 -1361 0
-1329 -1362 0
-1329 -1363 0
-1329 -1364 0
-1329 -1365 0
-1329 -1366 0
-1329 -1367 0
-1329 -1368 0
-1329 -1369 0
-1329 -1370 0
-1329 -1371 0
-1329 -1372 0
-1329 -1373 0
-1329 -1374 0
-1329 -1375 0
-1329 -1376 0
-1329 -1377 0
-1329 -1378 0
-1329 -1379 0
-1330 -1331 0
-1330 -1332 0
-1330 -1333 0
-1330 -1334 0
-1330 -1335 0
-1330 -1336 0
-1330 -1337 0
-1330 -1338 0
-1330 -1339 0
-1330 -1340 0
-1330 -1341 0
-1330 -1342 0
-1330 -1343 0
-1330 -1344 0
-1330 -1345 0
-1330 -1346 0
-1330 -1347 0
-1330 -1348 0
-1330 -1349 0
-1330 -1350 0
-1330 -1351 0
-1330 -1352 0
-1330 -1353 0
-1330 -1354 0
-1330 -1355 0
-1330 -1356 0
-1330 -1357 0
-1330 -1358 0
-1330 -1359 0
-1330 -1360 0
-1330 -1361 0
-1330 -1362 0
-1330 -1363 0
-1330 -1364 0
-1330 -1365 0
-1330 -1366 0
-1330 -1367 0
-1330 -1368 0
-1330 -1369 0
-1330 -1370 0
-1330 -1371 0
-1330 -1372 0
-1330 -1373 0
-1330 -1374 0
-1330 -1375 0
-1330 -1376 0
-1330 -1377 0
-1330 -1378 0
-1330 -1379 0
-1331 -1332 0
-1331 -1333 0
-1331 -1334 0
-1331 -1335 0
-1331 -1336 0
-1331 -1337 0
-1331 -1338 0
-1331 -1339 0
-1331 -1340 0
-1331 -1341 0
-1331 -1342 0
-1331 -1343 0
-1331 -1344 0
-1331 -1345 0
-1331 -1346 0
-1331 -1347 0
-1331 -1348 0
-1331 -1349 0
-1331 -1350 0
-1331 -1351 0
-1331 -1352 0
-1331 -1353 0
-1331 -1354 0
-1331 -1355 0
-1331 -1356 0
-1331 -1357 0
-1331 -1358 0
-1331 -1359 0
-1331 -1360 0
-1331 -1361 0
-1331 -1362 0
-1331 -1363 0
-1331 -1364 0
-1331 -1365 0
-1331 -1366 0
-1331 -1367 0
-1331 -1368 0
-1331 -1369 0
-1331 -1370 0
-1331 -1371 0
-1331 -1372 0
-1331 -1373 0
-1331 -1374 0
-1331 -1375 0
-1331 -1376 0
-1331 -1377 0
-1331 -1378 0
-1331 -1379 0
-1332 -1333 0
-1332 -1334 0
-1332 -1335 0
-1332 -1336 0
-1332 -1337 0
-1332 -1338 0
-1332 -1339 0
-1332 -1340 0
-1332 -1341 0
-1332 -1342 0
-1332 -1343 0
-1332 -1344 0
-1332 -1345 0
-1332 -1346 0
-1332 -1347 0
-1332 -1348 0
-1332 -1349 0
-1332 -1350 0
-1332 -1351 0
-1332 -1352 0
-1332 -1353 0
-1332 -1354 0
-1332 -1355 0
-1332 -1356 0
-1332 -1357 0
-1332 -1358 0
-1332 -1359 0
-1332 -1360 0
-1332 -1361 0
-1332 -1362 0
-1332 -1363 0
-1332 -1364 0
-1332 -1365 0
-1332 -1366 0
-1332 -1367 0
-1332 -1368 0
-1332 -1369 0
-1332 -1370 0
-1332 -1371 0
-1332 -1372 0
-1332 -1373 0
-1332 -1374 0
-1332 -1375 0
-1332 -1376 0
-1332 -1377 0
-1332 -1378 0
-1332 -1379 0
-1333 -1334 0
-1333 -1335 0
-1333 -1336 0
-1333 -1337 0
-1333 -1338 0
-1333 -1339 0
-1333 -1340 0
-1333 -1341 0
-1333 -1342 0
-1333 -1343 0
-1333 -1344 0
-1333 -1345 0
-1333 -1346 0
-1333 -1347 0
-1333 -1348 0
-1333 -1349 0
-1333 -1350 0
-1333 -1351 0
-1333 -1352 0
-1333 -1353 0
-1333 -1354 0
-1333 -1355 0
-1333 -1356 0
-1333 -1357 0
-1333 -1358 0
-1333 -1359 0
-1333 -1360 0
-1333 -1361 0
-1333 -1362 0
-1333 -1363 0
-1333 -1364 0
-1333 -1365 0
-1333 -1366 0
-1333 -1367 0
-1333 -1368 0
-1333 -1369 0
-1333 -1370 0
-1333 -1371 0
-1333 -1372 0
-1333 -1373 0
-1333 -1374 0
-1333 -1375 0
-1333 -1376 0
-1333 -1377 0
-1333 -1378 0
-1333 -1379 0
-1334 -1335 0
-1334 -1336 0
-1334 -1337 0
-1334 -1338 0
-1334 -1339 0
-1334 -1340 0
-1334 -1341 0
-1334 -1342 0
-1334 -1343 0
-1334 -1344 0
-1334 -1345 0
-1334 -1346 0
-1334 -1347 0
-1334 -1348 0
-1334 -1349 0
-1334 -1350 0
-1334 -1351 0
-1334 -1352 0
-1334 -1353 0
-1334 -1354 0
-1334 -1355 0
-1334 -1356 0
-1334 -1357 0
-1334 -1358 0
-1334 -1359 0
-1334 -1360 0
-1334 -1361 0
-1334 -1362 0
-1334 -1363 0
-1334 -1364 0
-1334 -1365 0
-1334 -1366 0
-1334 -1367 0
-1334 -1368 0
-1334 -1369 0
-1334 -1370 0
-1334 -1371 0
-1334 -1372 0
-1334 -1373 0
-1334 -1374 0
-1334 -1375 0
-1334 -1376 0
-1334 -1377 0
-1334 -1378 0
-1334 -1379 0
-1335 -1336 0
-1335 -1337 0
-1335 -1338 0
-1335 -1339 0
-1335 -1340 0
-1335 -1341 0
-1335 -1342 0
-1335 -1343 0
-1335 -1344 0
-1335 -1345 0
-1335 -1346 0
-1335 -1347 0
-1335 -1348 0
-1335 -1349 0
-1335 -1350 0
-1335 -1351 0
-1335 -1352 0
-1335 -1353 0
-1335 -1354 0
-1335 -1355 0
-1335 -1356 0
-1335 -1357 0
-1335 -1358 0
-1335 -1359 0
-1335 -1360 0
-1335 -1361 0
-1335 -1362 0
-1335 -1363 0
-1335 -1364 0
-1335 -1365 0
-1335 -1366 0
-1335 -1367 0
-1335 -1368 0
-1335 -1369 0
-1335 -1370 0
-1335 -1371 0
-1335 -1372 0
-1335 -1373 0
-1335 -1374 0
-1335 -1375 0
-1335 -1376 0
-1335 -1377 0
-1335 -1378 0
-1335 -1379 0
-1336 -1337 0
-1336 -1338 0
-1336 -1339 0
-1336 -1340 0
-1336 -1341 0
-1336 -1342 0
-1336 -1343 0
-1336 -1344 0
-1336 -1345 0
-1336 -1346 0
-1336 -1347 0
-1336 -1348 0
-1336 -1349 0
-1336 -1350 0
-1336 -1351 0
-1336 -1352 0
-1336 -1353 0
-1336 -1354 0
-1336 -1355 0
-1336 -1356 0
-1336 -1357 0
-1336 -1358 0
-1336 -1359 0
-1336 -1360 0
-1336 -1361 0
-1336 -1362 0
-1336 -1363 0
-1336 -1364 0
-1336 -1365 0
-1336 -1366 0
-1336 -1367 0
-1336 -1368 0
-1336 -1369 0
-1336 -1370 0
-1336 -1371 0
-1336 -1372 0
-1336 -1373 0
-1336 -1374 0
-1336 -1375 0
-1336 -1376 0
-1336 -1377 0
-1336 -1378 0
-1336 -1379 0
-1337 -1338 0
-1337 -1339 0
-1337 -1340 0
-1337 -1341 0
-1337 -1342 0
-1337 -1343 0
-1337 -1344 0
-1337 -1345 0
-1337 -1346 0
-1337 -1347 0
-1337 -1348 0
-1337 -1349 0
-1337 -1350 0
-1337 -1351 0
-1337 -1352 0
-1337 -1353 0
-1337 -1354 0
-1337 -1355 0
-1337 -1356 0
-1337 -1357 0
-1337 -1358 0
-1337 -1359 0
-1337 -1360 0
-1337 -1361 0
-1337 -1362 0
-1337 -1363 0
-1337 -1364 0
-1337 -1365 0
-1337 -1366 0
-1337 -1367 0
-1337 -1368 0
-1337 -1369 0
-1337 -1370 0
-1337 -1371 0
-1337 -1372 0
-1337 -1373 0
-1337 -1374 0
-1337 -1375 0
-1337 -1376 0
-1337 -1377 0
-1337 -1378 0
-1337 -1379 0
-1338 -1339 0
-1338 -1340 0
-1338 -1341 0
-1338 -1342 0
-1338 -1343 0
-1338 -1344 0
-1338 -1345 0
-1338 -1346 0
-1338 -1347 0
-1338 -1348 0
-1338 -1349 0
-1338 -1350 0
-1338 -1351 0
-1338 -1352 0
-1338 -1353 0
-1338 -1354 0
-1338 -1355 0
-1338 -1356 0
-1338 -1357 0
-1338 -1358 0
-1338 -1359 0
-1338 -1360 0
-1338 -1361 0
-1338 -1362 0
-1338 -1363 0
-1338 -1364 0
-1338 -1365 0
-1338 -1366 0
-1338 -1367 0
-1338 -1368 0
-1338 -1369 0
-1338 -1370 0
-1338 -1371 0
-1338 -1372 0
-1338 -1373 0
-1338 -1374 0
-1338 -1375 0
-1338 -1376 0
-1338 -1377 0
-1338 -1378 0
-1338 -1379 0
-1339 -1340 0
-1339 -1341 0
-1339 -1342 0
-1339 -1343 0
-1339 -1344 0
-1339 -1345 0
-1339 -1346 0
-1339 -1347 0
-1339 -1348 0
-1339 -1349 0
-1339 -1350 0
-1339 -1351 0
-1339 -1352 0
-1339 -1353 0
-1339 -1354 0
-1339 -1355 0
-1339 -1356 0
-1339 -1357 0
-1339 -1358 0
-1339 -1359 0
-1339 -1360 0
-1339 -1361 0
-1339 -1362 0
-1339 -1363 0
-1339 -1364 0
-1339 -1365 0
-1339 -1366 0
-1339 -1367 0
-1339 -1368 0
-1339 -1369 0
-1339 -1370 0
-1339 -1371 0
-1339 -1372 0
-1339 -1373 0
-1339 -1374 0
-1339 -1375 0
-1339 -1376 0
-1339 -1377 0
-1339 -1378 0
-1339 -1379 0
-1340 -1341 0
-1340 -1342 0
-1340 -1343 0
-1340 -1344 0
-1340 -1345 0
-1340 -1346 0
-1340 -1347 0
-1340 -1348 0
-1340 -1349 0
-1340 -1350 0
-1340 -1351 0
-1340 -1352 0
-1340 -1353 0
-1340 -1354 0
-1340 -1355 0
-1340 -1356 0
-1340 -1357 0
-1340 -1358 0
-1340 -1359 0
-1340 -1360 0
-1340 -1361 0
-1340 -1362 0
-1340 -1363 0
-1340 -1364 0
-1340 -1365 0
-1340 -1366 0
-1340 -1367 0
-1340 -1368 0
-1340 -1369 0
-1340 -1370 0
-1340 -1371 0
-1340 -1372 0
-1340 -1373 0
-1340 -1374 0
-1340 -1375 0
-1340 -1376 0
-1340 -1377 0
-1340 -1378 0
-1340 -1379 0
-1341 -1342 0
-1341 -1343 0
-1341 -1344 0
-1341 -1345 0
-1341 -1346 0
-1341 -1347 0
-1341 -1348 0
-1341 -1349 0
-1341 -1350 0
-1341 -1351 0
-1341 -1352 0
-1341 -1353 0
-1341 -1354 0
-1341 -1355 0
-1341 -1356 0
-1341 -1357 0
-1341 -1358 0
-1341 -1359 0
-1341 -1360 0
-1341 -1361 0
-1341 -1362 0
-1341 -1363 0
-1341 -1364 0
-1341 -1365 0
-1341 -1366 0
-1341 -1367 0
-1341 -1368 0
-1341 -1369 0
-1341 -1370 0
-1341 -1371 0
-1341 -1372 0
-1341 -1373 0
-1341 -1374 0
-1341 -1375 0
-1341 -1376 0
-1341 -1377 0
-1341 -1378 0
-1341 -1379 0
-1342 -1343 0
-1342 -1344 0
-1342 -1345 0
-1342 -1346 0
-1342 -1347 0
-1342 -1348 0
-1342 -1349 0
-1342 -1350 0
-1342 -1351 0
-1342 -1352 0
-1342 -1353 0
-1342 -1354 0
-1342 -1355 0
-1342 -1356 0
-1342 -1357 0
-1342 -1358 0
-1342 -1359 0
-1342 -1360 0
-1342 -1361 0
-1342 -1362 0
-1342 -1363 0
-1342 -1364 0
-1342 -1365 0
-1342 -1366 0
-1342 -1367 0
-1342 -1368 0
-1342 -1369 0
-1342 -1370 0
-1342 -1371 0
-1342 -1372 0
-1342 -1373 0
-1342 -1374 0
-1342 -1375 0
-1342 -1376 0
-1342 -1377 0
-1342 -1378 0
-1342 -1379 0
-1343 -1344 0
-1343 -1345 0
-1343 -1346 0
-1343 -1347 0
-1343 -1348 0
-1343 -1349 0
-1343 -1350 0
-1343 -1351 0
-1343 -1352 0
-1343 -1353 0
-1343 -1354 0
-1343 -1355 0
-1343 -1356 0
-1343 -1357 0
-1343 -1358 0
-1343 -1359 0
-1343 -1360 0
-1343 -1361 0
-1343 -1362 0
-1343 -1363 0
-1343 -1364 0
-1343 -1365 0
-1343 -1366 0
-1343 -1367 0
-1343 -1368 0
-1343 -1369 0
-1343 -1370 0
-1343 -1371 0
-1343 -1372 0
-1343 -1373 0
-1343 -1374 0
-1343 -1375 0
-1343 -1376 0
-1343 -1377 0
-1343 -1378 0
-1343 -1379 0
-1344 -1345 0
-1344 -1346 0
-1344 -1347 0
-1344 -1348 0
-1344 -1349 0
-1344 -1350 0
-1344 -1351 0
-1344 -1352 0
-1344 -1353 0
-1344 -1354 0
-1344 -1355 0
-1344 -1356 0
-1344 -1357 0
-1344 -1358 0
-1344 -1359 0
-1344 -1360 0
-1344 -1361 0
-1344 -1362 0
-1344 -1363 0
-1344 -1364 0
-1344 -1365 0
-1344 -1366 0
-1344 -1367 0
-1344 -1368 0
-1344 -1369 0
-1344 -1370 0
-1344 -1371 0
-1344 -1372 0
-1344 -1373 0
-1344 -1374 0
-1344 -1375 0
-1344 -1376 0
-1344 -1377 0
-1344 -1378 0
-1344 -1379 0
-1345 -1346 0
-1345 -1347 0
-1345 -1348 0
-1345 -1349 0
-1345 -1350 0
-1345 -1351 0
-1345 -1352 0
-1345 -1353 0
-1345 -1354 0
-1345 -1355 0
-1345 -1356 0
-1345 -1357 0
-1345 -1358 0
-1345 -1359 0
-1345 -1360 0
-1345 -1361 0
-1345 -1362 0
-1345 -1363 0
-1345 -1364 0
-1345 -1365 0
-1345 -1366 0
-1345 -1367 0
-1345 -1368 0
-1345 -1369 0
-1345 -1370 0
-1345 -1371 0
-1345 -1372 0
-1345 -1373 0
-1345 -1374 0
-1345 -1375 0
-1345 -1376 0
-1345 -1377 0
-1345 -1378 0
-1345 -1379 0
-1346 -1347 0
-1346 -1348 0
-1346 -1349 0
-1346 -1350 0
-1346 -1351 0
-1346 -1352 0
-1346 -1353 0
-1346 -1354 0
-1346 -1355 0
-1346 -1356 0
-1346 -1357 0
-1346 -1358 0
-1346 -1359 0
-1346 -1360 0
-1346 -1361 0
-1346 -1362 0
-1346 -1363 0
-1346 -1364 0
-1346 -1365 0
-1346 -1366 0
-1346 -1367 0
-1346 -1368 0
-1346 -1369 0
-1346 -1370 0
-1346 -1371 0
-1346 -1372 0
-1346 -1373 0
-1346 -1374 0
-1346 -1375 0
-1346 -1376 0
-1346 -1377 0
-1346 -1378 0
-1346 -1379 0
-1347 -1348 0
-1347 -1349 0
-1347 -1350 0
-1347 -1351 0
-1347 -1352 0
-1347 -1353 0
-1347 -1354 0
-1347 -1355 0
-1347 -1356 0
-1347 -1357 0
-1347 -1358 0
-1347 -1359 0
-1347 -1360 0
-1347 -1361 0
-1347 -1362 0
-1347 -1363 0
-1347 -1364 0
-1347 -1365 0
-1347 -1366 0
-1347 -1367 0
-1347 -1368 0
-1347 -1369 0
-1347 -1370 0
-1347 -1371 0
-1347 -1372 0
-1347 -1373 0
-1347 -1374 0
-1347 -1375 0
-1347 -1376 0
-1347 -1377 0
-1347 -1378 0
-1347 -1379 0
-1348 -1349 0
-1348 -1350 0
-1348 -1351 0
-1348 -1352 0
-1348 -1353 0
-1348 -1354 0
-1348 -1355 0
-1348 -1356 0
-1348 -1357 0
-1348 -1358 0
-1348 -1359 0
-1348 -1360 0
-1348 -1361 0
-1348 -1362 0
-1348 -1363 0
-1348 -1364 0
-1348 -1365 0
-1348 -1366 0
-1348 -1367 0
-1348 -1368 0
-1348 -1369 0
-1348 -1370 0
-1348 -1371 0
-1348 -1372 0
-1348 -1373 0
-1348 -1374 0
-1348 -1375 0
-1348 -1376 0
-1348 -1377 0
-1348 -1378 0
-1348 -1379 0
-1349 -1350 0
-1349 -1351 0
-1349 -1352 0
-1349 -1353 0
-1349 -1354 0
-1349 -1355 0
-1349 -1356 0
-1349 -1357 0
-1349 -1358 0
-1349 -1359 0
-1349 -1360 0
-1349 -1361 0
-1349 -1362 0
-1349 -1363 0
-1349 -1364 0
-1349 -1365 0
-1349 -1366 0
-1349 -1367 0
-1349 -1368 0
-1349 -1369 0
-1349 -1370 0
-1349 -1371 0
-1349 -1372 0
-1349 -1373 0
-1349 -1374 0
-1349 -1375 0
-1349 -1376 0
-1349 -1377 0
-1349 -1378 0
-1349 -1379 0
-1350 -1351 0
-1350 -1352 0
-1350 -1353 0
-1350 -1354 0
-1350 -1355 0
-1350 -1356 0
-1350 -1357 0
-1350 -1358 0
-1350 -1359 0
-1350 -1360 0
-1350 -1361 0
-1350 -1362 0
-1350 -1363 0
-1350 -1364 0
-1350 -1365 0
-1350 -1366 0
-1350 -1367 0
-1350 -1368 0
-1350 -1369 0
-1350 -1370 0
-1350 -1371 0
-1350 -1372 0
-1350 -1373 0
-1350 -1374 0
-1350 -1375 0
-1350 -1376 0
-1350 -1377 0
-1350 -1378 0
-1350 -1379 0
-1351 -1352 0
-1351 -1353 0
-1351 -1354 0
-1351 -1355 0
-1351 -1356 0
-1351 -1357 0
-1351 -1358 0
-1351 -1359 0
-1351 -1360 0
-1351 -1361 0
-1351 -1362 0
-1351 -1363 0
-1351 -1364 0
-1351 -1365 0
-1351 -1366 0
-1351 -1367 0
-1351 -1368 0
-1351 -1369 0
-1351 -1370 0
-1351 -1371 0
-1351 -1372 0
-1351 -1373 0
-1351 -1374 0
-1351 -1375 0
-1351 -1376 0
-1351 -1377 0
-1351 -1378 0
-1351 -1379 0
-1352 -1353 0
-1352 -1354 0
-1352 -1355 0
-1352 -1356 0
-1352 -1357 0
-1352 -1358 0
-1352 -1359 0
-1352 -1360 0
-1352 -1361 0
-1352 -1362 0
-1352 -1363 0
-1352 -1364 0
-1352 -1365 0
-1352 -1366 0
-1352 -1367 0
-1352 -1368 0
-1352 -1369 0
-1352 -1370 0
-1352 -1371 0
-1352 -1372 0
-1352 -1373 0
-1352 -1374 0
-1352 -1375 0
-1352 -1376 0
-1352 -1377 0
-1352 -1378 0
-1352 -1379 0
-1353 -1354 0
-1353 -1355 0
-1353 -1356 0
-1353 -1357 0
-1353 -1358 0
-1353 -1359 0
-1353 -1360 0
-1353 -1361 0
-1353 -1362 0
-1353 -1363 0
-1353 -1364 0
-1353 -1365 0
-1353 -1366 0
-1353 -1367 0
-1353 -1368 0
-1353 -1369 0
-1353 -1370 0
-1353 -1371 0
-1353 -1372 0
-1353 -1373 0
-1353 -1374 0
-1353 -1375 0
-1353 -1376 0
-1353 -1377 0
-1353 -1378 0
-1353 -1379 0
-1354 -1355 0
-1354 -1356 0
-1354 -1357 0
-1354 -1358 0
-1354 -1359 0
-1354 -1360 0
-1354 -1361 0
-1354 -1362 0
-1354 -1363 0
-1354 -1364 0
-1354 -1365 0
-1354 -1366 0
-1354 -1367 0
-1354 -1368 0
-1354 -1369 0
-1354 -1370 0
-1354 -1371 0
-1354 -1372 0
-1354 -1373 0
-1354 -1374 0
-1354 -1375 0
-1354 -1376 0
-1354 -1377 0
-1354 -1378 0
-1354 -1379 0
-1355 -1356 0
-1355 -1357 0
-1355 -1358 0
-1355 -1359 0
-1355 -1360 0
-1355 -1361 0
-1355 -1362 0
-1355 -1363 0
-1355 -1364 0
-1355 -1365 0
-1355 -1366 0
-1355 -1367 0
-1355 -1368 0
-1355 -1369 0
-1355 -1370 0
-1355 -1371 0
-1355 -1372 0
-1355 -1373 0
-1355 -1374 0
-1355 -1375 0
-1355 -1376 0
-1355 -1377 0
-1355 -1378 0
-1355 -1379 0
-1356 -1357 0
-1356 -1358 0
-1356 -1359 0
-1356 -1360 0
-1356 -1361 0
-1356 -1362 0
-1356 -1363 0
-1356 -1364 0
-1356 -1365 0
-1356 -1366 0
-1356 -1367 0
-1356 -1368 0
-1356 -1369 0
-1356 -1370 0
-1356 -1371 0
-1356 -1372 0
-1356 -1373 0
-1356 -1374 0
-1356 -1375 0
-1356 -1376 0
-1356 -1377 0
-1356 -1378 0
-1356 -1379 0
-1357 -1358 0
-1357 -1359 0
-1357 -1360 0
-1357 -1361 0
-1357 -1362 0
-1357 -1363 0
-1357 -1364 0
-1357 -1365 0
-1357 -1366 0
-1357 -1367 0
-1357 -1368 0
-1357 -1369 0
-1357 -1370 0
-1357 -1371 0
-1357 -1372 0
-1357 -1373 0
-1357 -1374 0
-1357 -1375 0
-1357 -1376 0
-1357 -1377 0
-1357 -1378 0
-1357 -1379 0
-1358 -1359 0
-1358 -1360 0
-1358 -1361 0
-1358 -1362 0
-1358 -1363 0
-1358 -1364 0
-1358 -1365 0
-1358 -1366 0
-1358 -1367 0
-1358 -1368 0
-1358 -1369 0
-1358 -1370 0
-1358 -1371 0
-1358 -1372 0
-1358 -1373 0
-1358 -1374 0
-1358 -1375 0
-1358 -1376 0
-1358 -1377 0
-1358 -1378 0
-1358 -1379 0
-1359 -1360 0
-1359 -1361 0
-1359 -1362 0
-1359 -1363 0
-1359 -1364 0
-1359 -1365 0
-1359 -1366 0
-1359 -1367 0
-1359 -1368 0
-1359 -1369 0
-1359 -1370 0
-1359 -1371 0
-1359 -1372 0
-1359 -1373 0
-1359 -1374 0
-1359 -1375 0
-1359 -1376 0
-1359 -1377 0
-1359 -1378 0
-1359 -1379 0
-1360 -1361 0
-1360 -1362 0
-1360 -1363 0
-1360 -1364 0
-1360 -1365 0
-1360 -1366 0
-1360 -1367 0
-1360 -1368 0
-1360 -1369 0
-1360 -1370 0
-1360 -1371 0
-1360 -1372 0
-1360 -1373 0
-1360 -1374 0
-1360 -1375 0
-1360 -1376 0
-1360 -1377 0
-1360 -1378 0
-1360 -1379 0
-1361 -1362 0
-1361 -1363 0
-1361 -1364 0
-1361 -1365 0
-1361 -1366 0
-1361 -1367 0
-1361 -1368 0
-1361 -1369 0
-1361 -1370 0
-1361 -1371 0
-1361 -1372 0
-1361 -1373 0
-1361 -1374 0
-1361 -1375 0
-1361 -1376 0
-1361 -1377 0
-1361 -1378 0
-1361 -1379 0
-1362 -1363 0
-1362 -1364 0
-1362 -1365 0
-1362 -1366 0
-1362 -1367 0
-1362 -1368 0
-1362 -1369 0
-1362 -1370 0
-1362 -1371 0
-1362 -1372 0
-1362 -1373 0
-1362 -1374 0
-1362 -1375 0
-1362 -1376 0
-1362 -1377 0
-1362 -1378 0
-1362 -1379 0
-1363 -1364 0
-1363 -1365 0
-1363 -1366 0
-1363 -1367 0
-1363 -1368 0
-1363 -1369 0
-1363 -1370 0
-1363 -1371 0
-1363 -1372 0
-1363 -1373 0
-1363 -1374 0
-1363 -1375 0
-1363 -1376 0
-1363 -1377 0
-1363 -1378 0
-1363 -1379 0
-1364 -1365 0
-1364 -1366 0
-1364 -1367 0
-1364 -1368 0
-1364 -1369 0
-1364 -1370 0
-1364 -1371 0
-1364 -1372 0
-1364 -1373 0
-1364 -1374 0
-1364 -1375 0
-1364 -1376 0
-1364 -1377 0
-1364 -1378 0
-1364 -1379 0
-1365 -1366 0
-1365 -1367 0
-1365 -1368 0
-1365 -1369 0
-1365 -1370 0
-1365 -1371 0
-1365 -1372 0
-1365 -1373 0
-1365 -1374 0
-1365 -1375 0
-1365 -1376 0
-1365 -1377 0
-1365 -1378 0
-1365 -1379 0
-1366 -1367 0
-1366 -1368 0
-1366 -1369 0
-1366 -1370 0
-1366 -1371 0
-1366 -1372 0
-1366 -1373 0
-1366 -1374 0
-1366 -1375 0
-1366 -1376 0
-1366 -1377 0
-1366 -1378 0
-1366 -1379 0
-1367 -1368 0
-1367 -1369 0
-1367 -1370 0
-1367 -1371 0
-1367 -1372 0
-1367 -1373 0
-1367 -1374 0
-1367 -1375 0
-1367 -1376 0
-1367 -1377 0
-1367 -1378 0
-1367 -1379 0
-1368 -1369 0
-1368 -1370 0
-1368 -1371 0
-1368 -1372 0
-1368 -1373 0
-1368 -1374 0
-1368 -1375 0
-1368 -1376 0
-1368 -1377 0
-1368 -1378 0
-1368 -1379 0
-1369 -1370 0
-1369 -1371 0
-1369 -1372 0
-1369 -1373 0
-1369 -1374 0
-1369 -1375 0
-1369 -1376 0
-1369 -1377 0
-1369 -1378 0
-1369 -1379 0
-1370 -1371 0
-1370 -1372 0
-1370 -1373 0
-1370 -1374 0
-1370 -1375 0
-1370 -1376 0
-1370 -1377 0
-1370 -1378 0
-1370 -1379 0
-1371 -1372 0
-1371 -1373 0
-1371 -1374 0
-1371 -1375 0
-1371 -1376 0
-1371 -1377 0
-1371 -1378 0
-1371 -1379 0
-1372 -1373 0
-1372 -1374 0
-1372 -1375 0
-1372 -1376 0
-1372 -1377 0
-1372 -1378 0
-1372 -1379 0
-1373 -1374 0
-1373 -1375 0
-1373 -1376 0
-1373 -1377 0
-1373 -1378 0
-1373 -1379 0
-1374 -1375 0
-1374 -1376 0
-1374 -1377 0
-1374 -1378 0
-1374 -1379 0
-1375 -1376 0
-1375 -1377 0
-1375 -1378 0
-1375 -1379 0
-1376 -1377 0
-1376 -1378 0
-1376 -1379 0
-1377 -1378 0
-1377 -1379 0
-1378 -1379 0
-448 597 1296 1297 1298 1299 1300 1301 1302 1303 1304 1305 1306 1307 1308 1309 1310 1311 1312 1313 1314 1315 1316 1317 1318 1319 0
448 -597 1296 1297 1298 1299 1300 1301 1302 1303 1304 1305 1306 1307 1308 1309 1310 1311 1312 1313 1314 1315 1316 1317 1318 1319 0
-449 598 1296 1297 1298 1299 1300 1301 1302 1303 1304 1305 1306 1307 1308 1309 1310 1311 1312 1313 1314 1315 1316 1317 1318 1319 0
449 -598 1296 1297 1298 1299 1300 1301 1302 1303 1304 1305 1306 1307 1308 1309 1310 1311 1312 1313 1314 1315 1316 1317 1318 1319 0
-450 599 1296 1297 1298 1299 1300 1301 1302 1303 1304 1305 1306 1307 1308 1309 1310 1311 1312 1313 1314 1315 1316 1317 1318 1319 0
450 -599 1296 1297 1298 1299 1300 1301 1302 1303 1304 1305 1306 1307 1308 1309 1310 1311 1312 1313 1314 1315 1316 1317 1318 1319 0
-451 600 1296 1297 1298 1299 1300 1301 1302 1303 1304 1305 1306 1307 1308 1309 1310 1311 1312 1313 1314 1315 1316 1317 1318 1319 0
451 -600 1296 1297 1298 1299 1300 1301 1302 1303 1304 1305 1306 1307 1308 1309 1310 1311 1312 1313 1314 1315 1316 1317 1318 1319 0
-452 601 1296 1297 1298 1299 1300 1301 1302 1303 1304 1305 1306 1307 1308 1309 1310 1311 1312 1313 1314 1315 1316 1317 1318 1319 0
452 -601 1296 1297 1298 1299 1300 1301 1302 1303 1304 1305 1306 1307 1308 1309 1310 1311 1312 1313 1314 1315 1316 1317 1318 1319 0
-453 602 1296 1297 1298 1299 1300 1301 1302 1303 1304 1305 1306 1307 1308 1309 1310 1311 1312 1313 1314 1315 1316 1317 1318 1319 0
453 -602 1296 1297 1298 1299 1300 1301 1302 1303 1304 1305 1306 1307 1308 1309 1310 1311 1312 1313 1314 1315 1316 1317 1318 1319 0
-454 603 1296 1297 1298 1299 1300 1301 1302 1303 1304 1305 1306 1307 1308 1309 1310 1311 1312 1313 1314 1315 1316 1317 1318 1319 0
454 -603 1296 1297 1298 1299 1300 1301 1302 1303 1304 1305 1306 1307 1308 1309 1310 1311 1312 1313 1314 1315 1316 1317 1318 1319 0
-455 604 1296 1297 1298 1299 1300 1301 1302 1303 1304 1305 1306 1307 1308 1309 1310 1311 1312 1313 1314 1315 1316 1317 1318 1319 0
455 -604 1296 1297 1298 1299 1300 1301 1302 1303 1304 1305 1306 1307 1308 1309 1310 1311 1312 1313 1314 1315 1316 1317 1318 1319 0
-456 605 1296 1297 1298 1299 1300 1301 1302 1303 1304 1305 1306 1307 1308 1309 1310 1311 1312 1313 1314 1315 1316 1317 1318 1319 0
456 -605 1296 1297 1298 1299 1300 1301 1302 1303 1304 1305 1306 1307 1308 1309 1310 1311 1312 1313 1314 1315 1316 1317 1318 1319 0
-457 606 1296 1297 1298 1299 1300 1301 1302 1303 1304 1305 1306 1307 1308 1309 1310 1311 1312 1313 1314 1315 1316 1317 1318 1319 0
457 -606 1296 1297 1298 1299 1300 1301 1302 1303 1304 1305 1306 1307 1308 1309 1310 1311 1312 1313 1314 1315 1316 1317 1318 1319 0
-507 656 1320 1321 1322 1323 1324 1325 1326 1327 1328 1329 1330 1331 1332 1333 1334 1335 1336 1337 1338 1339 1340 1341 1342 1343 0
507 -656 1320 1321 1322 1323 1324 1325 1326 1327 1328 1329 1330 1331 1332 1333 1334 1335 1336 1337 1338 1339 1340 1341 1342 1343 0
-508 657 1320 1321 1322 1323 1324 1325 1326 1327 1328 1329 1330 1331 1332 1333 1334 1335 1336 1337 1338 1339 1340 1341 1342 1343 0
508 -657 1320 1321 1322 1323 1324 1325 1326 1327 1328 1329 1330 1331 1332 1333 1334 1335 1336 1337 1338 1339 1340 1341 1342 1343 0
-509 658 1320 1321 1322 1323 1324 1325 1326 1327 1328 1329 1330 1331 1332 1333 1334 1335 1336 1337 1338 1339 1340 1341 1342 1343 0
509 -658 1320 1321 1322 1323 1324 1325 1326 1327 1328 1329 1330 1331 1332 1333 1334 1335 1336 1337 1338 1339 1340 1341 1342 1343 0
-510 659 1320 1321 1322 1323 1324 1325 1326 1327 1328 1329 1330 1331 1332 1333 1334 1335 1336 1337 1338 1339 1340 1341 1342 1343 0
510 -659 1320 1321 1322 1323 1324 1325 1326 1327 1328 1329 1330 1331 1332 1333 1334 1335 1336 1337 1338 1339 1340 1341 1342 1343 0
-511 660 1320 1321 1322 1323 1324 1325 1326 1327 1328 1329 1330 1331 1332 1333 1334 1335 1336 1337 1338 1339 1340 1341 1342 1343 0
511 -660 1320 1321 1322 1323 1324 1325 1326 1327 1328 1329 1330 1331 1332 1333 1334 1335 1336 1337 1338 1339 1340 1341 1342 1343 0
-512 661 1320 1321 1322 1323 1324 1325 1326 1327 1328 1329 1330 1331 1332 1333 1334 1335 1336 1337 1338 1339 1340 1341 1342 1343 0
512 -661 1320 1321 1322 1323 1324 1325 1326 1327 1328 1329 1330 1331 1332 1333 1334 1335 1336 1337 1338 1339 1340 1341 1342 1343 0
-513 662 1320 1321 1322 1323 1324 1325 1326 1327 1328 1329 1330 1331 1332 1333 1334 1335 1336 1337 1338 1339 1340 1341 1342 1343 0
513 -662 1320 1321 1322 1323 1324 1325 1326 1327 1328 1329 1330 1331 1332 1333 1334 1335 1336 1337 1338 1339 1340 1341 1342 1343 0
-514 663 1320 1321 1322 1323 1324 1325 1326 1327 1328 1329 1330 1331 1332 1333 1334 1335 1336 1337 1338 1339 1340 1341 1342 1343 0
514 -663 1320 1321 1322 1323 1324 1325 1326 1327 1328 1329 1330 1331 1332 1333 1334 1335 1336 1337 1338 1339 1340 1341 1342 1343 0
-515 664 1320 1321 1322 1323 1324 1325 1326 1327 1328 1329 1330 1331 1332 1333 1334 1335 1336 1337 1338 1339 1340 1341 1342 1343 0
515 -664 1320 1321 1322 1323 1324 1325 1326 1327 1328 1329 1330 1331 1332 1333 1334 1335 1336 1337 1338 1339 1340 1341 1342 1343 0
-516 665 1320 1321 1322 1323 1324 1325 1326 1327 1328 1329 1330 1331 1332 1333 1334 1335 1336 1337 1338 1339 1340 1341 1342 1343 0
516 -665 1320 1321 1322 1323 1324 1325 1326 1327 1328 1329 1330 1331 1332 1333 1334 1335 1336 1337 1338 1339 1340 1341 1342 1343 0
-542 691 1344 1345 1346 1347 1348 1349 1350 1351 1352 1353 1354 1355 1356 1357 1358 1359 1360 1361 1362 1363 0
542 -691 1344 1345 1346 1347 1348 1349 1350 1351 1352 1353 1354 1355 1356 1357 1358 1359 1360 1361 1362 1363 0
-543 692 1344 1345 1346 1347 1348 1349 1350 1351 1352 1353 1354 1355 1356 1357 1358 1359 1360 1361 1362 1363 0
543 -692 1344 1345 1346 1347 1348 1349 1350 1351 1352 1353 1354 1355 1356 1357 1358 1359 1360 1361 1362 1363 0
-544 693 1344 1345 1346 1347 1348 1349 1350 1351 1352 1353 1354 1355 1356 1357 1358 1359 1360 1361 1362 1363 0
544 -693 1344 1345 1346 1347 1348 1349 1350 1351 1352 1353 1354 1355 1356 1357 1358 1359 1360 1361 1362 1363 0
-545 694 1344 1345 1346 1347 1348 1349 1350 1351 1352 1353 1354 1355 1356 1357 1358 1359 1360 1361 1362 1363 0
545 -694 1344 1345 1346 1347 1348 1349 1350 1351 1352 1353 1354 1355 1356 1357 1358 1359 1360 1361 1362 1363 0
-546 695 1344 1345 1346 1347 1348 1349 1350 1351 1352 1353 1354 1355 1356 1357 1358 1359 1360 1361 1362 1363 0
546 -695 1344 1345 1346 1347 1348 1349 1350 1351 1352 1353 1354 1355 1356 1357 1358 1359 1360 1361 1362 1363 0
-547 696 1344 1345 1346 1347 1348 1349 1350 1351 1352 1353 1354 1355 1356 1357 1358 1359 1360 1361 1362 1363 0
547 -696 1344 1345 1346 1347 1348 1349 1350 1351 1352 1353 1354 1355 1356 1357 1358 1359 1360 1361 1362 1363 0
-548 697 1344 1345 1346 1347 1348 1349 1350 1351 1352 1353 1354 1355 1356 1357 1358 1359 1360 1361 1362 1363 0
548 -697 1344 1345 1346 1347 1348 1349 1350 1351 1352 1353 1354 1355 1356 1357 1358 1359 1360 1361 1362 1363 0
-549 698 1344 1345 1346 1347 1348 1349 1350 1351 1352 1353 1354 1355 1356 1357 1358 1359 1360 1361 1362 1363 0
549 -698 1344 1345 1346 1347 1348 1349 1350 1351 1352 1353 1354 1355 1356 1357 1358 1359 1360 1361 1362 1363 0
-550 699 1344 1345 1346 1347 1348 1349 1350 1351 1352 1353 1354 1355 1356 1357 1358 1359 1360 1361 1362 1363 0
550 -699 1344 1345 1346 1347 1348 1349 1350 1351 1352 1353 1354 1355 1356 1357 1358 1359 1360 1361 1362 1363 0
-572 721 1364 1365 1366 1367 1368 1369 1370 1371 1372 1373 1374 1375 1376 1377 1378 1379 0
572 -721 1364 1365 1366 1367 1368 1369 1370 1371 1372 1373 1374 1375 1376 1377 1378 1379 0
-573 722 1364 1365 1366 1367 1368 1369 1370 1371 1372 1373 1374 1375 1376 1377 1378 1379 0
573 -722 1364 1365 1366 1367 1368 1369 1370 1371 1372 1373 1374 1375 1376 1377 1378 1379 0
-574 723 1364 1365 1366 1367 1368 1369 1370 1371 1372 1373 1374 1375 1376 1377 1378 1379 0
574 -723 1364 1365 1366 1367 1368 1369 1370 1371 1372 1373 1374 1375 1376 1377 1378 1379 0
-575 724 1364 1365 1366 1367 1368 1369 1370 1371 1372 1373 1374 1375 1376 1377 1378 1379 0
575 -724 1364 1365 1366 1367 1368 1369 1370 1371 1372 1373 1374 1375 1376 1377 1378 1379 0
-576 725 1364 1365 1366 1367 1368 1369 1370 1371 1372 1373 1374 1375 1376 1377 1378 1379 0
576 -725 1364 1365 1366 1367 1368 1369 1370 1371 1372 1373 1374 1375 1376 1377 1378 1379 0
-577 726 1364 1365 1366 1367 1368 1369 1370 1371 1372 1373 1374 1375 1376 1377 1378 1379 0
577 -726 1364 1365 1366 1367 1368 1369 1370 1371 1372 1373 1374 1375 1376 1377 1378 1379 0
-578 727 1364 1365 1366 1367 1368 1369 1370 1371 1372 1373 1374 1375 1376 1377 1378 1379 0
578 -727 1364 1365 1366 1367 1368 1369 1370 1371 1372 1373 1374 1375 1376 1377 1378 1379 0
-579 728 1364 1365 1366 1367 1368 1369 1370 1371 1372 1373 1374 1375 1376 1377 1378 1379 0
579 -728 1364 1365 1366 1367 1368 1369 1370 1371 1372 1373 1374 1375 1376 1377 1378 1379 0
-1380 611 0
-1380 746 0
-1380 760 0
-1380 752 0
-1380 -597 -603 0
-1381 611 0
-1381 747 0
-1381 760 0
-1381 752 0
-1381 -598 -603 0
-1382 611 0
-1382 748 0
-1382 760 0
-1382 752 0
-1382 -599 -603 0
-1383 611 0
-1383 749 0
-1383 760 0
-1383 752 0
-1383 -600 -603 0
-1384 611 0
-1384 750 0
-1384 760 0
-1384 752 0
-1384 -601 -603 0
-1385 611 0
-1385 751 0
-1385 760 0
-1385 752 0
-1385 -602 -603 0
-1386 611 0
-1386 746 0
-1386 760 0
-1386 656 0
-1386 -665 0
-1386 -816 0
-1386 -662 753 0
-1386 -662 -597 -604 0
-1386 -663 754 0
-1386 -663 -597 -605 0
-1386 -664 755 0
-1386 -664 -597 -606 0
-1387 611 0
-1387 747 0
-1387 760 0
-1387 657 0
-1387 -665 0
-1387 -816 0
-1387 -662 753 0
-1387 -662 -598 -604 0
-1387 -663 754 0
-1387 -663 -598 -605 0
-1387 -664 755 0
-1387 -664 -598 -606 0
-1388 611 0
-1388 748 0
-1388 760 0
-1388 658 0
-1388 -665 0
-1388 -816 0
-1388 -662 753 0
-1388 -662 -599 -604 0
-1388 -663 754 0
-1388 -663 -599 -605 0
-1388 -664 755 0
-1388 -664 -599 -606 0
-1389 611 0
-1389 749 0
-1389 760 0
-1389 659 0
-1389 -665 0
-1389 -816 0
-1389 -662 753 0
-1389 -662 -600 -604 0
-1389 -663 754 0
-1389 -663 -600 -605 0
-1389 -664 755 0
-1389 -664 -600 -606 0
-1390 611 0
-1390 750 0
-1390 760 0
-1390 660 0
-1390 -665 0
-1390 -816 0
-1390 -662 753 0
-1390 -662 -601 -604 0
-1390 -663 754 0
-1390 -663 -601 -605 0
-1390 -664 755 0
-1390 -664 -601 -606 0
-1391 611 0
-1391 751 0
-1391 760 0
-1391 661 0
-1391 -665 0
-1391 -816 0
-1391 -662 753 0
-1391 -662 -602 -604 0
-1391 -663 754 0
-1391 -663 -602 -605 0
-1391 -664 755 0
-1391 -664 -602 -606 0
-1392 611 0
-1392 746 0
-1392 760 0
-1392 691 0
-1392 -699 0
-1392 -850 0
-1392 -696 753 0
-1392 -696 -597 -604 0
-1392 -697 754 0
-1392 -697 -597 -605 0
-1392 -698 755 0
-1392 -698 -597 -606 0
-1393 611 0
-1393 747 0
-1393 760 0
-1393 691 692 0
-1393 -699 0
-1393 -850 0
-1393 -696 753 0
-1393 -696 -598 -604 0
-1393 -697 754 0
-1393 -697 -598 -605 0
-1393 -698 755 0
-1393 -698 -598 -606 0
-1394 611 0
-1394 748 0
-1394 760 0
-1394 692 693 0
-1394 -699 0
-1394 -850 0
-1394 -696 753 0
-1394 -696 -599 -604 0
-1394 -697 754 0
-1394 -697 -599 -605 0
-1394 -698 755 0
-1394 -698 -599 -606 0
-1395 611 0
-1395 749 0
-1395 760 0
-1395 693 694 0
-1395 -699 0
-1395 -850 0
-1395 -696 753 0
-1395 -696 -600 -604 0
-1395 -697 754 0
-1395 -697 -600 -605 0
-1395 -698 755 0
-1395 -698 -600 -606 0
-1396 611 0
-1396 750 0
-1396 760 0
-1396 694 695 0
-1396 -699 0
-1396 -850 0
-1396 -696 753 0
-1396 -696 -601 -604 0
-1396 -697 754 0
-1396 -697 -601 -605 0
-1396 -698 755 0
-1396 -698 -601 -606 0
-1397 611 0
-1397 751 0
-1397 760 0
-1397 695 0
-1397 -699 0
-1397 -850 0
-1397 -696 753 0
-1397 -696 -602 -604 0
-1397 -697 754 0
-1397 -697 -602 -605 0
-1397 -698 755 0
-1397 -698 -602 -606 0
-1398 611 0
-1398 746 0
-1398 760 0
-1398 721 0
-1398 -728 0
-1398 -879 0
-1398 -725 753 0
-1398 -725 -597 -604 0
-1398 -726 754 0
-1398 -726 -597 -605 0
-1398 -727 755 0
-1398 -727 -597 -606 0
-1399 611 0
-1399 747 0
-1399 760 0
-1399 721 722 0
-1399 -728 0
-1399 -879 0
-1399 -725 753 0
-1399 -725 -598 -604 0
-1399 -726 754 0
-1399 -726 -598 -605 0
-1399 -727 755 0
-1399 -727 -598 -606 0
-1400 611 0
-1400 748 0
-1400 760 0
-1400 721 722 723 0
-1400 -728 0
-1400 -879 0
-1400 -725 753 0
-1400 -725 -599 -604 0
-1400 -726 754 0
-1400 -726 -599 -605 0
-1400 -727 755 0
-1400 -727 -599 -606 0
-1401 611 0
-1401 749 0
-1401 760 0
-1401 722 723 724 0
-1401 -728 0
-1401 -879 0
-1401 -725 753 0
-1401 -725 -600 -604 0
-1401 -726 754 0
-1401 -726 -600 -605 0
-1401 -727 755 0
-1401 -727 -600 -606 0
-1402 611 0
-1402 750 0
-1402 760 0
-1402 723 724 0
-1402 -728 0
-1402 -879 0
-1402 -725 753 0
-1402 -725 -601 -604 0
-1402 -726 754 0
-1402 -726 -601 -605 0
-1402 -727 755 0
-1402 -727 -601 -606 0
-1403 611 0
-1403 751 0
-1403 760 0
-1403 724 0
-1403 -728 0
-1403 -879 0
-1403 -725 753 0
-1403 -725 -602 -604 0
-1403 -726 754 0
-1403 -726 -602 -605 0
-1403 -727 755 0
-1403 -727 -602 -606 0
-1404 667 0
-1404 805 0
-1404 816 0
-1404 811 0
-1404 -656 -662 0
-1405 667 0
-1405 806 0
-1405 816 0
-1405 811 0
-1405 -657 -662 0
-1406 667 0
-1406 807 0
-1406 816 0
-1406 811 0
-1406 -658 -662 0
-1407 667 0
-1407 808 0
-1407 816 0
-1407 811 0
-1407 -659 -662 0
-1408 667 0
-1408 809 0
-1408 816 0
-1408 811 0
-1408 -660 -662 0
-1409 667 0
-1409 810 0
-1409 816 0
-1409 811 0
-1409 -661 -662 0
-1410 667 0
-1410 805 0
-1410 816 0
-1410 597 0
-1410 -606 0
-1410 -760 0
-1410 -603 812 0
-1410 -603 -656 -663 0
-1410 -604 813 0
-1410 -604 -656 -664 0
-1410 -605 814 0
-1410 -605 -656 -665 0
-1411 667 0
-1411 806 0
-1411 816 0
-1411 598 0
-1411 -606 0
-1411 -760 0
-1411 -603 812 0
-1411 -603 -657 -663 0
-1411 -604 813 0
-1411 -604 -657 -664 0
-1411 -605 814 0
-1411 -605 -657 -665 0
-1412 667 0
-1412 807 0
-1412 816 0
-1412 599 0
-1412 -606 0
-1412 -760 0
-1412 -603 812 0
-1412 -603 -658 -663 0
-1412 -604 813 0
-1412 -604 -658 -664 0
-1412 -605 814 0
-1412 -605 -658 -665 0
-1413 667 0
-1413 808 0
-1413 816 0
-1413 600 0
-1413 -606 0
-1413 -760 0
-1413 -603 812 0
-1413 -603 -659 -663 0
-1413 -604 813 0
-1413 -604 -659 -664 0
-1413 -605 814 0
-1413 -605 -659 -665 0
-1414 667 0
-1414 809 0
-1414 816 0
-1414 601 0
-1414 -606 0
-1414 -760 0
-1414 -603 812 0
-1414 -603 -660 -663 0
-1414 -604 813 0
-1414 -604 -660 -664 0
-1414 -605 814 0
-1414 -605 -660 -665 0
-1415 667 0
-1415 810 0
-1415 816 0
-1415 602 0
-1415 -606 0
-1415 -760 0
-1415 -603 812 0
-1415 -603 -661 -663 0
-1415 -604 813 0
-1415 -604 -661 -664 0
-1415 -605 814 0
-1415 -605 -661 -665 0
-1416 667 0
-1416 805 0
-1416 816 0
-1416 691 0
-1416 -699 0
-1416 -850 0
-1416 -696 812 0
-1416 -696 -656 -663 0
-1416 -697 813 0
-1416 -697 -656 -664 0
-1416 -698 814 0
-1416 -698 -656 -665 0
-1417 667 0
-1417 806 0
-1417 816 0
-1417 691 692 0
-1417 -699 0
-1417 -850 0
-1417 -696 812 0
-1417 -696 -657 -663 0
-1417 -697 813 0
-1417 -697 -657 -664 0
-1417 -698 814 0
-1417 -698 -657 -665 0
-1418 667 0
-1418 807 0
-1418 816 0
-1418 692 693 0
-1418 -699 0
-1418 -850 0
-1418 -696 812 0
-1418 -696 -658 -663 0
-1418 -697 813 0
-1418 -697 -658 -664 0
-1418 -698 814 0
-1418 -698 -658 -665 0
-1419 667 0
-1419 808 0
-1419 816 0
-1419 693 694 0
-1419 -699 0
-1419 -850 0
-1419 -696 812 0
-1419 -696 -659 -663 0
-1419 -697 813 0
-1419 -697 -659 -664 0
-1419 -698 814 0
-1419 -698 -659 -665 0
-1420 667 0
-1420 809 0
-1420 816 0
-1420 694 695 0
-1420 -699 0
-1420 -850 0
-1420 -696 812 0
-1420 -696 -660 -663 0
-1420 -697 813 0
-1420 -697 -660 -664 0
-1420 -698 814 0
-1420 -698 -660 -665 0
-1421 667 0
-1421 810 0
-1421 816 0
-1421 695 0
-1421 -699 0
-1421 -850 0
-1421 -696 812 0
-1421 -696 -661 -663 0
-1421 -697 813 0
-1421 -697 -661 -664 0
-1421 -698 814 0
-1421 -698 -661 -665 0
-1422 667 0
-1422 805 0
-1422 816 0
-1422 721 0
-1422 -728 0
-1422 -879 0
-1422 -725 812 0
-1422 -725 -656 -663 0
-1422 -726 813 0
-1422 -726 -656 -664 0
-1422 -727 814 0
-1422 -727 -656 -665 0
-1423 667 0
-1423 806 0
-1423 816 0
-1423 721 722 0
-1423 -728 0
-1423 -879 0
-1423 -725 812 0
-1423 -725 -657 -663 0
-1423 -726 813 0
-1423 -726 -657 -664 0
-1423 -727 814 0
-1423 -727 -657 -665 0
-1424 667 0
-1424 807 0
-1424 816 0
-1424 721 722 723 0
-1424 -728 0
-1424 -879 0
-1424 -725 812 0
-1424 -725 -658 -663 0
-1424 -726 813 0
-1424 -726 -658 -664 0
-1424 -727 814 0
-1424 -727 -658 -665 0
-1425 667 0
-1425 808 0
-1425 816 0
-1425 722 723 724 0
-1425 -728 0
-1425 -879 0
-1425 -725 812 0
-1425 -725 -659 -663 0
-1425 -726 813 0
-1425 -726 -659 -664 0
-1425 -727 814 0
-1425 -727 -659 -665 0
-1426 667 0
-1426 809 0
-1426 816 0
-1426 723 724 0
-1426 -728 0
-1426 -879 0
-1426 -725 812 0
-1426 -725 -660 -663 0
-1426 -726 813 0
-1426 -726 -660 -664 0
-1426 -727 814 0
-1426 -727 -660 -665 0
-1427 667 0
-1427 810 0
-1427 816 0
-1427 724 0
-1427 -728 0
-1427 -879 0
-1427 -725 812 0
-1427 -725 -661 -663 0
-1427 -726 813 0
-1427 -726 -661 -664 0
-1427 -727 814 0
-1427 -727 -661 -665 0
-1428 701 0
-1428 840 0
-1428 850 0
-1428 845 0
-1428 -691 -696 0
-1429 701 0
-1429 841 0
-1429 850 0
-1429 845 0
-1429 -692 -696 0
-1430 701 0
-1430 842 0
-1430 850 0
-1430 845 0
-1430 -693 -696 0
-1431 701 0
-1431 843 0
-1431 850 0
-1431 845 0
-1431 -694 -696 0
-1432 701 0
-1432 844 0
-1432 850 0
-1432 845 0
-1432 -695 -696 0
-1433 701 0
-1433 840 0
-1433 850 0
-1433 597 598 0
-1433 -606 0
-1433 -760 0
-1433 -603 846 0
-1433 -603 -691 -697 0
-1433 -604 847 0
-1433 -604 -691 -698 0
-1433 -605 848 0
-1433 -605 -691 -699 0
-1434 701 0
-1434 841 0
-1434 850 0
-1434 598 599 0
-1434 -606 0
-1434 -760 0
-1434 -603 846 0
-1434 -603 -692 -697 0
-1434 -604 847 0
-1434 -604 -692 -698 0
-1434 -605 848 0
-1434 -605 -692 -699 0
-1435 701 0
-1435 842 0
-1435 850 0
-1435 599 600 0
-1435 -606 0
-1435 -760 0
-1435 -603 846 0
-1435 -603 -693 -697 0
-1435 -604 847 0
-1435 -604 -693 -698 0
-1435 -605 848 0
-1435 -605 -693 -699 0
-1436 701 0
-1436 843 0
-1436 850 0
-1436 600 601 0
-1436 -606 0
-1436 -760 0
-1436 -603 846 0
-1436 -603 -694 -697 0
-1436 -604 847 0
-1436 -604 -694 -698 0
-1436 -605 848 0
-1436 -605 -694 -699 0
-1437 701 0
-1437 844 0
-1437 850 0
-1437 601 602 0
-1437 -606 0
-1437 -760 0
-1437 -603 846 0
-1437 -603 -695 -697 0
-1437 -604 847 0
-1437 -604 -695 -698 0
-1437 -605 848 0
-1437 -605 -695 -699 0
-1438 701 0
-1438 840 0
-1438 850 0
-1438 656 657 0
-1438 -665 0
-1438 -816 0
-1438 -662 846 0
-1438 -662 -691 -697 0
-1438 -663 847 0
-1438 -663 -691 -698 0
-1438 -664 848 0
-1438 -664 -691 -699 0
-1439 701 0
-1439 841 0
-1439 850 0
-1439 657 658 0
-1439 -665 0
-1439 -816 0
-1439 -662 846 0
-1439 -662 -692 -697 0
-1439 -663 847 0
-1439 -663 -692 -698 0
-1439 -664 848 0
-1439 -664 -692 -699 0
-1440 701 0
-1440 842 0
-1440 850 0
-1440 658 659 0
-1440 -665 0
-1440 -816 0
-1440 -662 846 0
-1440 -662 -693 -697 0
-1440 -663 847 0
-1440 -663 -693 -698 0
-1440 -664 848 0
-1440 -664 -693 -699 0
-1441 701 0
-1441 843 0
-1441 850 0
-1441 659 660 0
-1441 -665 0
-1441 -816 0
-1441 -662 846 0
-1441 -662 -694 -697 0
-1441 -663 847 0
-1441 -663 -694 -698 0
-1441 -664 848 0
-1441 -664 -694 -699 0
-1442 701 0
-1442 844 0
-1442 850 0
-1442 660 661 0
-1442 -665 0
-1442 -816 0
-1442 -662 846 0
-1442 -662 -695 -697 0
-1442 -663 847 0
-1442 -663 -695 -698 0
-1442 -664 848 0
-1442 -664 -695 -699 0
-1443 701 0
-1443 840 0
-1443 850 0
-1443 721 722 0
-1443 -728 0
-1443 -879 0
-1443 -725 846 0
-1443 -725 -691 -697 0
-1443 -726 847 0
-1443 -726 -691 -698 0
-1443 -727 848 0
-1443 -727 -691 -699 0
-1444 701 0
-1444 841 0
-1444 850 0
-1444 721 722 723 0
-1444 -728 0
-1444 -879 0
-1444 -725 846 0
-1444 -725 -692 -697 0
-1444 -726 847 0
-1444 -726 -692 -698 0
-1444 -727 848 0
-1444 -727 -692 -699 0
-1445 701 0
-1445 842 0
-1445 850 0
-1445 721 722 723 724 0
-1445 -728 0
-1445 -879 0
-1445 -725 846 0
-1445 -725 -693 -697 0
-1445 -726 847 0
-1445 -726 -693 -698 0
-1445 -727 848 0
-1445 -727 -693 -699 0
-1446 701 0
-1446 843 0
-1446 850 0
-1446 722 723 724 0
-1446 -728 0
-1446 -879 0
-1446 -725 846 0
-1446 -725 -694 -697 0
-1446 -726 847 0
-1446 -726 -694 -698 0
-1446 -727 848 0
-1446 -727 -694 -699 0
-1447 701 0
-1447 844 0
-1447 850 0
-1447 723 724 0
-1447 -728 0
-1447 -879 0
-1447 -725 846 0
-1447 -725 -695 -697 0
-1447 -726 847 0
-1447 -726 -695 -698 0
-1447 -727 848 0
-1447 -727 -695 -699 0
-1448 730 0
-1448 870 0
-1448 879 0
-1448 874 0
-1448 -721 -725 0
-1449 730 0
-1449 871 0
-1449 879 0
-1449 874 0
-1449 -722 -725 0
-1450 730 0
-1450 872 0
-1450 879 0
-1450 874 0
-1450 -723 -725 0
-1451 730 0
-1451 873 0
-1451 879 0
-1451 874 0
-1451 -724 -725 0
-1452 730 0
-1452 870 0
-1452 879 0
-1452 597 598 599 0
-1452 -606 0
-1452 -760 0
-1452 -603 875 0
-1452 -603 -721 -726 0
-1452 -604 876 0
-1452 -604 -721 -727 0
-1452 -605 877 0
-1452 -605 -721 -728 0
-1453 730 0
-1453 871 0
-1453 879 0
-1453 598 599 600 0
-1453 -606 0
-1453 -760 0
-1453 -603 875 0
-1453 -603 -722 -726 0
-1453 -604 876 0
-1453 -604 -722 -727 0
-1453 -605 877 0
-1453 -605 -722 -728 0
-1454 730 0
-1454 872 0
-1454 879 0
-1454 599 600 601 0
-1454 -606 0
-1454 -760 0
-1454 -603 875 0
-1454 -603 -723 -726 0
-1454 -604 876 0
-1454 -604 -723 -727 0
-1454 -605 877 0
-1454 -605 -723 -728 0
-1455 730 0
-1455 873 0
-1455 879 0
-1455 600 601 602 0
-1455 -606 0
-1455 -760 0
-1455 -603 875 0
-1455 -603 -724 -726 0
-1455 -604 876 0
-1455 -604 -724 -727 0
-1455 -605 877 0
-1455 -605 -724 -728 0
-1456 730 0
-1456 870 0
-1456 879 0
-1456 656 657 658 0
-1456 -665 0
-1456 -816 0
-1456 -662 875 0
-1456 -662 -721 -726 0
-1456 -663 876 0
-1456 -663 -721 -727 0
-1456 -664 877 0
-1456 -664 -721 -728 0
-1457 730 0
-1457 871 0
-1457 879 0
-1457 657 658 659 0
-1457 -665 0
-1457 -816 0
-1457 -662 875 0
-1457 -662 -722 -726 0
-1457 -663 876 0
-1457 -663 -722 -727 0
-1457 -664 877 0
-1457 -664 -722 -728 0
-1458 730 0
-1458 872 0
-1458 879 0
-1458 658 659 660 0
-1458 -665 0
-1458 -816 0
-1458 -662 875 0
-1458 -662 -723 -726 0
-1458 -663 876 0
-1458 -663 -723 -727 0
-1458 -664 877 0
-1458 -664 -723 -728 0
-1459 730 0
-1459 873 0
-1459 879 0
-1459 659 660 661 0
-1459 -665 0
-1459 -816 0
-1459 -662 875 0
-1459 -662 -724 -726 0
-1459 -663 876 0
-1459 -663 -724 -727 0
-1459 -664 877 0
-1459 -664 -724 -728 0
-1460 730 0
-1460 870 0
-1460 879 0
-1460 691 692 693 0
-1460 -699 0
-1460 -850 0
-1460 -696 875 0
-1460 -696 -721 -726 0
-1460 -697 876 0
-1460 -697 -721 -727 0
-1460 -698 877 0
-1460 -698 -721 -728 0
-1461 730 0
-1461 871 0
-1461 879 0
-1461 691 692 693 694 0
-1461 -699 0
-1461 -850 0
-1461 -696 875 0
-1461 -696 -722 -726 0
-1461 -697 876 0
-1461 -697 -722 -727 0
-1461 -698 877 0
-1461 -698 -722 -728 0
-1462 730 0
-1462 872 0
-1462 879 0
-1462 692 693 694 695 0
-1462 -699 0
-1462 -850 0
-1462 -696 875 0
-1462 -696 -723 -726 0
-1462 -697 876 0
-1462 -697 -723 -727 0
-1462 -698 877 0
-1462 -698 -723 -728 0
-1463 730 0
-1463 873 0
-1463 879 0
-1463 693 694 695 0
-1463 -699 0
-1463 -850 0
-1463 -696 875 0
-1463 -696 -724 -726 0
-1463 -697 876 0
-1463 -697 -724 -727 0
-1463 -698 877 0
-1463 -698 -724 -728 0
1380 1381 1382 1383 1384 1385 1386 1387 1388 1389 1390 1391 1392 1393 1394 1395 1396 1397 1398 1399 1400 1401 1402 1403 1404 1405 1406 1407 1408 1409 1410 1411 1412 1413 1414 1415 1416 1417 1418 1419 1420 1421 1422 1423 1424 1425 1426 1427 1428 1429 1430 1431 1432 1433 1434 1435 1436 1437 1438 1439 1440 1441 1442 1443 1444 1445 1446 1447 1448 1449 1450 1451 1452 1453 1454 1455 1456 1457 1458 1459 1460 1461 1462 1463 0
-1380 -1381 0
-1380 -1382 0
-1380 -1383 0
-1380 -1384 0
-1380 -1385 0
-1380 -1386 0
-1380 -1387 0
-1380 -1388 0
-1380 -1389 0
-1380 -1390 0
-1380 -1391 0
-1380 -1392 0
-1380 -1393 0
-1380 -1394 0
-1380 -1395 0
-1380 -1396 0
-1380 -1397 0
-1380 -1398 0
-1380 -1399 0
-1380 -1400 0
-1380 -1401 0
-1380 -1402 0
-1380 -1403 0
-1380 -1404 0
-1380 -1405 0
-1380 -1406 0
-1380 -1407 0
-1380 -1408 0
-1380 -1409 0
-1380 -1410 0
-1380 -1411 0
-1380 -1412 0
-1380 -1413 0
-1380 -1414 0
-1380 -1415 0
-1380 -1416 0
-1380 -1417 0
-1380 -1418 0
-1380 -1419 0
-1380 -1420 0
-1380 -1421 0
-1380 -1422 0
-1380 -1423 0
-1380 -1424 0
-1380 -1425 0
-1380 -1426 0
-1380 -1427 0
-1380 -1428 0
-1380 -1429 0
-1380 -1430 0
-1380 -1431 0
-1380 -1432 0
-1380 -1433 0
-1380 -1434 0
-1380 -1435 0
-1380 -1436 0
-1380 -1437 0
-1380 -1438 0
-1380 -1439 0
-1380 -1440 0
-1380 -1441 0
-1380 -1442 0
-1380 -1443 0
-1380 -1444 0
-1380 -1445 0
-1380 -1446 0
-1380 -1447 0
-1380 -1448 0
-1380 -1449 0
-1380 -1450 0
-1380 -1451 0
-1380 -1452 0
-1380 -1453 0
-1380 -1454 0
-1380 -1455 0
-1380 -1456 0
-1380 -1457 0
-1380 -1458 0
-1380 -1459 0
-1380 -1460 0
-1380 -1461 0
-1380 -1462 0
-1380 -1463 0
-1381 -1382 0
-1381 -1383 0
-1381 -1384 0
-1381 -1385 0
-1381 -1386 0
-1381 -1387 0
-1381 -1388 0
-1381 -1389 0
-1381 -1390 0
-1381 -1391 0
-1381 -1392 0
-1381 -1393 0
-1381 -1394 0
-1381 -1395 0
-1381 -1396 0
-1381 -1397 0
-1381 -1398 0
-1381 -1399 0
-1381 -1400 0
-1381 -1401 0
-1381 -1402 0
-1381 -1403 0
-1381 -1404 0
-1381 -1405 0
-1381 -1406 0
-1381 -1407 0
-1381 -1408 0
-1381 -1409 0
-1381 -1410 0
-1381 -1411 0
-1381 -1412 0
-1381 -1413 0
-1381 -1414 0
-1381 -1415 0
-1381 -1416 0
-1381 -1417 0
-1381 -1418 0
-1381 -1419 0
-1381 -1420 0
-1381 -1421 0
-1381 -1422 0
-1381 -1423 0
-1381 -1424 0
-1381 -1425 0
-1381 -1426 0
-1381 -1427 0
-1381 -1428 0
-1381 -1429 0
-1381 -1430 0
-1381 -1431 0
-1381 -1432 0
-1381 -1433 0
-1381 -1434 0
-1381 -1435 0
-1381 -1436 0
-1381 -1437 0
-1381 -1438 0
-1381 -1439 0
-1381 -1440 0
-1381 -1441 0
-1381 -1442 0
-1381 -1443 0
-1381 -1444 0
-1381 -1445 0
-1381 -1446 0
-1381 -1447 0
-1381 -1448 0
-1381 -1449 0
-1381 -1450 0
-1381 -1451 0
-1381 -1452 0
-1381 -1453 0
-1381 -1454 0
-1381 -1455 0
-1381 -1456 0
-1381 -1457 0
-1381 -1458 0
-1381 -1459 0
-1381 -1460 0
-1381 -1461 0
-1381 -1462 0
-1381 -1463 0
-1382 -1383 0
-1382 -1384 0
-1382 -1385 0
-1382 -1386 0
-1382 -1387 0
-1382 -1388 0
-1382 -1389 0
-1382 -1390 0
-1382 -1391 0
-1382 -1392 0
-1382 -1393 0
-1382 -1394 0
-1382 -1395 0
-1382 -1396 0
-1382 -1397 0
-1382 -1398 0
-1382 -1399 0
-1382 -1400 0
-1382 -1401 0
-1382 -1402 0
-1382 -1403 0
-1382 -1404 0
-1382 -1405 0
-1382 -1406 0
-1382 -1407 0
-1382 -1408 0
-1382 -1409 0
-1382 -1410 0
-1382 -1411 0
-1382 -1412 0
-1382 -1413 0
-1382 -1414 0
-1382 -1415 0
-1382 -1416 0
-1382 -1417 0
-1382 -1418 0
-1382 -1419 0
-1382 -1420 0
-1382 -1421 0
-1382 -1422 0
-1382 -1423 0
-1382 -1424 0
-1382 -1425 0
-1382 -1426 0
-1382 -1427 0
-1382 -1428 0
-1382 -1429 0
-1382 -1430 0
-1382 -1431 0
-1382 -1432 0
-1382 -1433 0
-1382 -1434 0
-1382 -1435 0
-1382 -1436 0
-1382 -1437 0
-1382 -1438 0
-1382 -1439 0
-1382 -1440 0
-1382 -1441 0
-1382 -1442 0
-1382 -1443 0
-1382 -1444 0
-1382 -1445 0
-1382 -1446 0
-1382 -1447 0
-1382 -1448 0
-1382 -1449 0
-1382 -1450 0
-1382 -1451 0
-1382 -1452 0
-1382 -1453 0
-1382 -1454 0
-1382 -1455 0
-1382 -1456 0
-1382 -1457 0
-1382 -1458 0
-1382 -1459 0
-1382 -1460 0
-1382 -1461 0
-1382 -1462 0
-1382 -1463 0
-1383 -1384 0
-1383 -1385 0
-1383 -1386 0
-1383 -1387 0
-1383 -1388 0
-1383 -1389 0
-1383 -1390 0
-1383 -1391 0
-1383 -1392 0
-1383 -1393 0
-1383 -1394 0
-1383 -1395 0
-1383 -1396 0
-1383 -1397 0
-1383 -1398 0
-1383 -1399 0
-1383 -1400 0
-1383 -1401 0
-1383 -1402 0
-1383 -1403 0
-1383 -1404 0
-1383 -1405 0
-1383 -1406 0
-1383 -1407 0
-1383 -1408 0
-1383 -1409 0
-1383 -1410 0
-1383 -1411 0
-1383 -1412 0
-1383 -1413 0
-1383 -1414 0
-1383 -1415 0
-1383 -1416 0
-1383 -1417 0
-1383 -1418 0
-1383 -1419 0
-1383 -1420 0
-1383 -1421 0
-1383 -1422 0
-1383 -1423 0
-1383 -1424 0
-1383 -1425 0
-1383 -1426 0
-1383 -1427 0
-1383 -1428 0
-1383 -1429 0
-1383 -1430 0
-1383 -1431 0
-1383 -1432 0
-1383 -1433 0
-1383 -1434 0
-1383 -1435 0
-1383 -1436 0
-1383 -1437 0
-1383 -1438 0
-1383 -1439 0
-1383 -1440 0
-1383 -1441 0
-1383 -1442 0
-1383 -1443 0
-1383 -1444 0
-1383 -1445 0
-1383 -1446 0
-1383 -1447 0
-1383 -1448 0
-1383 -1449 0
-1383 -1450 0
-1383 -1451 0
-1383 -1452 0
-1383 -1453 0
-1383 -1454 0
-1383 -1455 0
-1383 -1456 0
-1383 -1457 0
-1383 -1458 0
-1383 -1459 0
-1383 -1460 0
-1383 -1461 0
-1383 -1462 0
-1383 -1463 0
-1384 -1385 0
-1384 -1386 0
-1384 -1387 0
-1384 -1388 0
-1384 -1389 0
-1384 -1390 0
-1384 -1391 0
-1384 -1392 0
-1384 -1393 0
-1384 -1394 0
-1384 -1395 0
-1384 -1396 0
-1384 -1397 0
-1384 -1398 0
-1384 -1399 0
-1384 -1400 0
-1384 -1401 0
-1384 -1402 0
-1384 -1403 0
-1384 -1404 0
-1384 -1405 0
-1384 -1406 0
-1384 -1407 0
-1384 -1408 0
-1384 -1409 0
-1384 -1410 0
-1384 -1411 0
-1384 -1412 0
-1384 -1413 0
-1384 -1414 0
-1384 -1415 0
-1384 -1416 0
-1384 -1417 0
-1384 -1418 0
-1384 -1419 0
-1384 -1420 0
-1384 -1421 0
-1384 -1422 0
-1384 -1423 0
-1384 -1424 0
-1384 -1425 0
-1384 -1426 0
-1384 -1427 0
-1384 -1428 0
-1384 -1429 0
-1384 -1430 0
-1384 -1431 0
-1384 -1432 0
-1384 -1433 0
-1384 -1434 0
-1384 -1435 0
-1384 -1436 0
-1384 -1437 0
-1384 -1438 0
-1384 -1439 0
-1384 -1440 0
-1384 -1441 0
-1384 -1442 0
-1384 -1443 0
-1384 -1444 0
-1384 -1445 0
-1384 -1446 0
-1384 -1447 0
-1384 -1448 0
-1384 -1449 0
-1384 -1450 0
-1384 -1451 0
-1384 -1452 0
-1384 -1453 0
-1384 -1454 0
-1384 -1455 0
-1384 -1456 0
-1384 -1457 0
-1384 -1458 0
-1384 -1459 0
-1384 -1460 0
-1384 -1461 0
-1384 -1462 0
-1384 -1463 0
-1385 -1386 0
-1385 -1387 0
-1385 -1388 0
-1385 -1389 0
-1385 -1390 0
-1385 -1391 0
-1385 -1392 0
-1385 -1393 0
-1385 -1394 0
-1385 -1395 0
-1385 -1396 0
-1385 -1397 0
-1385 -1398 0
-1385 -1399 0
-1385 -1400 0
-1385 -1401 0
-1385 -1402 0
-1385 -1403 0
-1385 -1404 0
-1385 -1405 0
-1385 -1406 0
-1385 -1407 0
-1385 -1408 0
-1385 -1409 0
-1385 -1410 0
-1385 -1411 0
-1385 -1412 0
-1385 -1413 0
-1385 -1414 0
-1385 -1415 0
-1385 -1416 0
-1385 -1417 0
-1385 -1418 0
-1385 -1419 0
-1385 -1420 0
-1385 -1421 0
-1385 -1422 0
-1385 -1423 0
-1385 -1424 0
-1385 -1425 0
-1385 -1426 0
-1385 -1427 0
-1385 -1428 0
-1385 -1429 0
-1385 -1430 0
-1385 -1431 0
-1385 -1432 0
-1385 -1433 0
-1385 -1434 0
-1385 -1435 0
-1385 -1436 0
-1385 -1437 0
-1385 -1438 0
-1385 -1439 0
-1385 -1440 0
-1385 -1441 0
-1385 -1442 0
-1385 -1443 0
-1385 -1444 0
-1385 -1445 0
-1385 -1446 0
-1385 -1447 0
-1385 -1448 0
-1385 -1449 0
-1385 -1450 0
-1385 -1451 0
-1385 -1452 0
-1385 -1453 0
-1385 -1454 0
-1385 -1455 0
-1385 -1456 0
-1385 -1457 0
-1385 -1458 0
-1385 -1459 0
-1385 -1460 0
-1385 -1461 0
-1385 -1462 0
-1385 -1463 0
-1386 -1387 0
-1386 -1388 0
-1386 -1389 0
-1386 -1390 0
-1386 -1391 0
-1386 -1392 0
-1386 -1393 0
-1386 -1394 0
-1386 -1395 0
-1386 -1396 0
-1386 -1397 0
-1386 -1398 0
-1386 -1399 0
-1386 -1400 0
-1386 -1401 0
-1386 -1402 0
-1386 -1403 0
-1386 -1404 0
-1386 -1405 0
-1386 -1406 0
-1386 -1407 0
-1386 -1408 0
-1386 -1409 0
-1386 -1410 0
-1386 -1411 0
-1386 -1412 0
-1386 -1413 0
-1386 -1414 0
-1386 -1415 0
-1386 -1416 0
-1386 -1417 0
-1386 -1418 0
-1386 -1419 0
-1386 -1420 0
-1386 -1421 0
-1386 -1422 0
-1386 -1423 0
-1386 -1424 0
-1386 -1425 0
-1386 -1426 0
-1386 -1427 0
-1386 -1428 0
-1386 -1429 0
-1386 -1430 0
-1386 -1431 0
-1386 -1432 0
-1386 -1433 0
-1386 -1434 0
-1386 -1435 0
-1386 -1436 0
-1386 -1437 0
-1386 -1438 0
-1386 -1439 0
-1386 -1440 0
-1386 -1441 0
-1386 -1442 0
-1386 -1443 0
-1386 -1444 0
-1386 -1445 0
-1386 -1446 0
-1386 -1447 0
-1386 -1448 0
-1386 -1449 0
-1386 -1450 0
-1386 -1451 0
-1386 -1452 0
-1386 -1453 0
-1386 -1454 0
-1386 -1455 0
-1386 -1456 0
-1386 -1457 0
-1386 -1458 0
-1386 -1459 0
-1386 -1460 0
-1386 -1461 0
-1386 -1462 0
-1386 -1463 0
-1387 -1388 0
-1387 -1389 0
-1387 -1390 0
-1387 -1391 0
-1387 -1392 0
-1387 -1393 0
-1387 -1394 0
-1387 -1395 0
-1387 -1396 0
-1387 -1397 0
-1387 -1398 0
-1387 -1399 0
-1387 -1400 0
-1387 -1401 0
-1387 -1402 0
-1387 -1403 0
-1387 -1404 0
-1387 -1405 0
-1387 -1406 0
-1387 -1407 0
-1387 -1408 0
-1387 -1409 0
-1387 -1410 0
-1387 -1411 0
-1387 -1412 0
-1387 -1413 0
-1387 -1414 0
-1387 -1415 0
-1387 -1416 0
-1387 -1417 0
-1387 -1418 0
-1387 -1419 0
-1387 -1420 0
-1387 -1421 0
-1387 -1422 0
-1387 -1423 0
-1387 -1424 0
-1387 -1425 0
-1387 -1426 0
-1387 -1427 0
-1387 -1428 0
-1387 -1429 0
-1387 -1430 0
-1387 -1431 0
-1387 -1432 0
-1387 -1433 0
-1387 -1434 0
-1387 -1435 0
-1387 -1436 0
-1387 -1437 0
-1387 -1438 0
-1387 -1439 0
-1387 -1440 0
-1387 -1441 0
-1387 -1442 0
-1387 -1443 0
-1387 -1444 0
-1387 -1445 0
-1387 -1446 0
-1387 -1447 0
-1387 -1448 0
-1387 -1449 0
-1387 -1450 0
-1387 -1451 0
-1387 -1452 0
-1387 -1453 0
-1387 -1454 0
-1387 -1455 0
-1387 -1456 0
-1387 -1457 0
-1387 -1458 0
-1387 -1459 0
-1387 -1460 0
-1387 -1461 0
-1387 -1462 0
-1387 -1463 0
-1388 -1389 0
-1388 -1390 0
-1388 -1391 0
-1388 -1392 0
-1388 -1393 0
-1388 -1394 0
-1388 -1395 0
-1388 -1396 0
-1388 -1397 0
-1388 -1398 0
-1388 -1399 0
-1388 -1400 0
-1388 -1401 0
-1388 -1402 0
-1388 -1403 0
-1388 -1404 0
-1388 -1405 0
-1388 -1406 0
-1388 -1407 0
-1388 -1408 0
-1388 -1409 0
-1388 -1410 0
-1388 -1411 0
-1388 -1412 0
-1388 -1413 0
-1388 -1414 0
-1388 -1415 0
-1388 -1416 0
-1388 -1417 0
-1388 -1418 0
-1388 -1419 0
-1388 -1420 0
-1388 -1421 0
-1388 -1422 0
-1388 -1423 0
-1388 -1424 0
-1388 -1425 0
-1388 -1426 0
-1388 -1427 0
-1388 -1428 0
-1388 -1429 0
-1388 -1430 0
-1388 -1431 0
-1388 -1432 0
-1388 -1433 0
-1388 -1434 0
-1388 -1435 0
-1388 -1436 0
-1388 -1437 0
-1388 -1438 0
-1388 -1439 0
-1388 -1440 0
-1388 -1441 0
-1388 -1442 0
-1388 -1443 0
-1388 -1444 0
-1388 -1445 0
-1388 -1446 0
-1388 -1447 0
-1388 -1448 0
-1388 -1449 0
-1388 -1450 0
-1388 -1451 0
-1388 -1452 0
-1388 -1453 0
-1388 -1454 0
-1388 -1455 0
-1388 -1456 0
-1388 -1457 0
-1388 -1458 0
-1388 -1459 0
-1388 -1460 0
-1388 -1461 0
-1388 -1462 0
-1388 -1463 0
-1389 -1390 0
-1389 -1391 0
-1389 -1392 0
-1389 -1393 0
-1389 -1394 0
-1389 -1395 0
-1389 -1396 0
-1389 -1397 0
-1389 -1398 0
-1389 -1399 0
-1389 -1400 0
-1389 -1401 0
-1389 -1402 0
-1389 -1403 0
-1389 -1404 0
-1389 -1405 0
-1389 -1406 0
-1389 -1407 0
-1389 -1408 0
-1389 -1409 0
-1389 -1410 0
-1389 -1411 0
-1389 -1412 0
-1389 -1413 0
-1389 -1414 0
-1389 -1415 0
-1389 -1416 0
-1389 -1417 0
-1389 -1418 0
-1389 -1419 0
-1389 -1420 0
-1389 -1421 0
-1389 -1422 0
-1389 -1423 0
-1389 -1424 0
-1389 -1425 0
-1389 -1426 0
-1389 -1427 0
-1389 -1428 0
-1389 -1429 0
-1389 -1430 0
-1389 -1431 0
-1389 -1432 0
-1389 -1433 0
-1389 -1434 0
-1389 -1435 0
-1389 -1436 0
-1389 -1437 0
-1389 -1438 0
-1389 -1439 0
-1389 -1440 0
-1389 -1441 0
-1389 -1442 0
-1389 -1443 0
-1389 -1444 0
-1389 -1445 0
-1389 -1446 0
-1389 -1447 0
-1389 -1448 0
-1389 -1449 0
-1389 -1450 0
-1389 -1451 0
-1389 -1452 0
-1389 -1453 0
-1389 -1454 0
-1389 -1455 0
-1389 -1456 0
-1389 -1457 0
-1389 -1458 0
-1389 -1459 0
-1389 -1460 0
-1389 -1461 0
-1389 -1462 0
-1389 -1463 0
-1390 -1391 0
-1390 -1392 0
-1390 -1393 0
-1390 -1394 0
-1390 -1395 0
-1390 -1396 0
-1390 -1397 0
-1390 -1398 0
-1390 -1399 0
-1390 -1400 0
-1390 -1401 0
-1390 -1402 0
-1390 -1403 0
-1390 -1404 0
-1390 -1405 0
-1390 -1406 0
-1390 -1407 0
-1390 -1408 0
-1390 -1409 0
-1390 -1410 0
-1390 -1411 0
-1390 -1412 0
-1390 -1413 0
-1390 -1414 0
-1390 -1415 0
-1390 -1416 0
-1390 -1417 0
-1390 -1418 0
-1390 -1419 0
-1390 -1420 0
-1390 -1421 0
-1390 -1422 0
-1390 -1423 0
-1390 -1424 0
-1390 -1425 0
-1390 -1426 0
-1390 -1427 0
-1390 -1428 0
-1390 -1429 0
-1390 -1430 0
-1390 -1431 0
-1390 -1432 0
-1390 -1433 0
-1390 -1434 0
-1390 -1435 0
-1390 -1436 0
-1390 -1437 0
-1390 -1438 0
-1390 -1439 0
-1390 -1440 0
-1390 -1441 0
-1390 -1442 0
-1390 -1443 0
-1390 -1444 0
-1390 -1445 0
-1390 -1446 0
-1390 -1447 0
-1390 -1448 0
-1390 -1449 0
-1390 -1450 0
-1390 -1451 0
-1390 -1452 0
-1390 -1453 0
-1390 -1454 0
-1390 -1455 0
-1390 -1456 0
-1390 -1457 0
-1390 -1458 0
-1390 -1459 0
-1390 -1460 0
-1390 -1461 0
-1390 -1462 0
-1390 -1463 0
-1391 -1392 0
-1391 -1393 0
-1391 -1394 0
-1391 -1395 0
-1391 -1396 0
-1391 -1397 0
-1391 -1398 0
-1391 -1399 0
-1391 -1400 0
-1391 -1401 0
-1391 -1402 0
-1391 -1403 0
-1391 -1404 0
-1391 -1405 0
-1391 -1406 0
-1391 -1407 0
-1391 -1408 0
-1391 -1409 0
-1391 -1410 0
-1391 -1411 0
-1391 -1412 0
-1391 -1413 0
-1391 -1414 0
-1391 -1415 0
-1391 -1416 0
-1391 -1417 0
-1391 -1418 0
-1391 -1419 0
-1391 -1420 0
-1391 -1421 0
-1391 -1422 0
-1391 -1423 0
-1391 -1424 0
-1391 -1425 0
-1391 -1426 0
-1391 -1427 0
-1391 -1428 0
-1391 -1429 0
-1391 -1430 0
-1391 -1431 0
-1391 -1432 0
-1391 -1433 0
-1391 -1434 0
-1391 -1435 0
-1391 -1436 0
-1391 -1437 0
-1391 -1438 0
-1391 -1439 0
-1391 -1440 0
-1391 -1441 0
-1391 -1442 0
-1391 -1443 0
-1391 -1444 0
-1391 -1445 0
-1391 -1446 0
-1391 -1447 0
-1391 -1448 0
-1391 -1449 0
-1391 -1450 0
-1391 -1451 0
-1391 -1452 0
-1391 -1453 0
-1391 -1454 0
-1391 -1455 0
-1391 -1456 0
-1391 -1457 0
-1391 -1458 0
-1391 -1459 0
-1391 -1460 0
-1391 -1461 0
-1391 -1462 0
-1391 -1463 0
-1392 -1393 0
-1392 -1394 0
-1392 -1395 0
-1392 -1396 0
-1392 -1397 0
-1392 -1398 0
-1392 -1399 0
-1392 -1400 0
-1392 -1401 0
-1392 -1402 0
-1392 -1403 0
-1392 -1404 0
-1392 -1405 0
-1392 -1406 0
-1392 -1407 0
-1392 -1408 0
-1392 -1409 0
-1392 -1410 0
-1392 -1411 0
-1392 -1412 0
-1392 -1413 0
-1392 -1414 0
-1392 -1415 0
-1392 -1416 0
-1392 -1417 0
-1392 -1418 0
-1392 -1419 0
-1392 -1420 0
-1392 -1421 0
-1392 -1422 0
-1392 -1423 0
-1392 -1424 0
-1392 -1425 0
-1392 -1426 0
-1392 -1427 0
-1392 -1428 0
-1392 -1429 0
-1392 -1430 0
-1392 -1431 0
-1392 -1432 0
-1392 -1433 0
-1392 -1434 0
-1392 -1435 0
-1392 -1436 0
-1392 -1437 0
-1392 -1438 0
-1392 -1439 0
-1392 -1440 0
-1392 -1441 0
-1392 -1442 0
-1392 -1443 0
-1392 -1444 0
-1392 -1445 0
-1392 -1446 0
-1392 -1447 0
-1392 -1448 0
-1392 -1449 0
-1392 -1450 0
-1392 -1451 0
-1392 -1452 0
-1392 -1453 0
-1392 -1454 0
-1392 -1455 0
-1392 -1456 0
-1392 -1457 0
-1392 -1458 0
-1392 -1459 0
-1392 -1460 0
-1392 -1461 0
-1392 -1462 0
-1392 -1463 0
-1393 -1394 0
-1393 -1395 0
-1393 -1396 0
-1393 -1397 0
-1393 -1398 0
-1393 -1399 0
-1393 -1400 0
-1393 -1401 0
-1393 -1402 0
-1393 -1403 0
-1393 -1404 0
-1393 -1405 0
-1393 -1406 0
-1393 -1407 0
-1393 -1408 0
-1393 -1409 0
-1393 -1410 0
-1393 -1411 0
-1393 -1412 0
-1393 -1413 0
-1393 -1414 0
-1393 -1415 0
-1393 -1416 0
-1393 -1417 0
-1393 -1418 0
-1393 -1419 0
-1393 -1420 0
-1393 -1421 0
-1393 -1422 0
-1393 -1423 0
-1393 -1424 0
-1393 -1425 0
-1393 -1426 0
-1393 -1427 0
-1393 -1428 0
-1393 -1429 0
-1393 -1430 0
-1393 -1431 0
-1393 -1432 0
-1393 -1433 0
-1393 -1434 0
-1393 -1435 0
-1393 -1436 0
-1393 -1437 0
-1393 -1438 0
-1393 -1439 0
-1393 -1440 0
-1393 -1441 0
-1393 -1442 0
-1393 -1443 0
-1393 -1444 0
-1393 -1445 0
-1393 -1446 0
-1393 -1447 0
-1393 -1448 0
-1393 -1449 0
-1393 -1450 0
-1393 -1451 0
-1393 -1452 0
-1393 -1453 0
-1393 -1454 0
-1393 -1455 0
-1393 -1456 0
-1393 -1457 0
-1393 -1458 0
-1393 -1459 0
-1393 -1460 0
-1393 -1461 0
-1393 -1462 0
-1393 -1463 0
-1394 -1395 0
-1394 -1396 0
-1394 -1397 0
-1394 -1398 0
-1394 -1399 0
-1394 -1400 0
-1394 -1401 0
-1394 -1402 0
-1394 -1403 0
-1394 -1404 0
-1394 -1405 0
-1394 -1406 0
-1394 -1407 0
-1394 -1408 0
-1394 -1409 0
-1394 -1410 0
-1394 -1411 0
-1394 -1412 0
-1394 -1413 0
-1394 -1414 0
-1394 -1415 0
-1394 -1416 0
-1394 -1417 0
-1394 -1418 0
-1394 -1419 0
-1394 -1420 0
-1394 -1421 0
-1394 -1422 0
-1394 -1423 0
-1394 -1424 0
-1394 -1425 0
-1394 -1426 0
-1394 -1427 0
-1394 -1428 0
-1394 -1429 0
-1394 -1430 0
-1394 -1431 0
-1394 -1432 0
-1394 -1433 0
-1394 -1434 0
-1394 -1435 0
-1394 -1436 0
-1394 -1437 0
-1394 -1438 0
-1394 -1439 0
-1394 -1440 0
-1394 -1441 0
-1394 -1442 0
-1394 -1443 0
-1394 -1444 0
-1394 -1445 0
-1394 -1446 0
-1394 -1447 0
-1394 -1448 0
-1394 -1449 0
-1394 -1450 0
-1394 -1451 0
-1394 -1452 0
-1394 -1453 0
-1394 -1454 0
-1394 -1455 0
-1394 -1456 0
-1394 -1457 0
-1394 -1458 0
-1394 -1459 0
-1394 -1460 0
-1394 -1461 0
-1394 -1462 0
-1394 -1463 0
-1395 -1396 0
-1395 -1397 0
-1395 -1398 0
-1395 -1399 0
-1395 -1400 0
-1395 -1401 0
-1395 -1402 0
-1395 -1403 0
-1395 -1404 0
-1395 -1405 0
-1395 -1406 0
-1395 -1407 0
-1395 -1408 0
-1395 -1409 0
-1395 -1410 0
-1395 -1411 0
-1395 -1412 0
-1395 -1413 0
-1395 -1414 0
-1395 -1415 0
-1395 -1416 0
-1395 -1417 0
-1395 -1418 0
-1395 -1419 0
-1395 -1420 0
-1395 -1421 0
-1395 -1422 0
-1395 -1423 0
-1395 -1424 0
-1395 -1425 0
-1395 -1426 0
-1395 -1427 0
-1395 -1428 0
-1395 -1429 0
-1395 -1430 0
-1395 -1431 0
-1395 -1432 0
-1395 -1433 0
-1395 -1434 0
-1395 -1435 0
-1395 -1436 0
-1395 -1437 0
-1395 -1438 0
-1395 -1439 0
-1395 -1440 0
-1395 -1441 0
-1395 -1442 0
-1395 -1443 0
-1395 -1444 0
-1395 -1445 0
-1395 -1446 0
-1395 -1447 0
-1395 -1448 0
-1395 -1449 0
-1395 -1450 0
-1395 -1451 0
-1395 -1452 0
-1395 -1453 0
-1395 -1454 0
-1395 -1455 0
-1395 -1456 0
-1395 -1457 0
-1395 -1458 0
-1395 -1459 0
-1395 -1460 0
-1395 -1461 0
-1395 -1462 0
-1395 -1463 0
-1396 -1397 0
-1396 -1398 0
-1396 -1399 0
-1396 -1400 0
-1396 -1401 0
-1396 -1402 0
-1396 -1403 0
-1396 -1404 0
-1396 -1405 0
-1396 -1406 0
-1396 -1407 0
-1396 -1408 0
-1396 -1409 0
-1396 -1410 0
-1396 -1411 0
-1396 -1412 0
-1396 -1413 0
-1396 -1414 0
-1396 -1415 0
-1396 -1416 0
-1396 -1417 0
-1396 -1418 0
-1396 -1419 0
-1396 -1420 0
-1396 -1421 0
-1396 -1422 0
-1396 -1423 0
-1396 -1424 0
-1396 -1425 0
-1396 -1426 0
-1396 -1427 0
-1396 -1428 0
-1396 -1429 0
-1396 -1430 0
-1396 -1431 0
-1396 -1432 0
-1396 -1433 0
-1396 -1434 0
-1396 -1435 0
-1396 -1436 0
-1396 -1437 0
-1396 -1438 0
-1396 -1439 0
-1396 -1440 0
-1396 -1441 0
-1396 -1442 0
-1396 -1443 0
-1396 -1444 0
-1396 -1445 0
-1396 -1446 0
-1396 -1447 0
-1396 -1448 0
-1396 -1449 0
-1396 -1450 0
-1396 -1451 0
-1396 -1452 0
-1396 -1453 0
-1396 -1454 0
-1396 -1455 0
-1396 -1456 0
-1396 -1457 0
-1396 -1458 0
-1396 -1459 0
-1396 -1460 0
-1396 -1461 0
-1396 -1462 0
-1396 -1463 0
-1397 -1398 0
-1397 -1399 0
-1397 -1400 0
-1397 -1401 0
-1397 -1402 0
-1397 -1403 0
-1397 -1404 0
-1397 -1405 0
-1397 -1406 0
-1397 -1407 0
-1397 -1408 0
-1397 -1409 0
-1397 -1410 0
-1397 -1411 0
-1397 -1412 0
-1397 -1413 0
-1397 -1414 0
-1397 -1415 0
-1397 -1416 0
-1397 -1417 0
-1397 -1418 0
-1397 -1419 0
-1397 -1420 0
-1397 -1421 0
-1397 -1422 0
-1397 -1423 0
-1397 -1424 0
-1397 -1425 0
-1397 -1426 0
-1397 -1427 0
-1397 -1428 0
-1397 -1429 0
-1397 -1430 0
-1397 -1431 0
-1397 -1432 0
-1397 -1433 0
-1397 -1434 0
-1397 -1435 0
-1397 -1436 0
-1397 -1437 0
-1397 -1438 0
-1397 -1439 0
-1397 -1440 0
-1397 -1441 0
-1397 -1442 0
-1397 -1443 0
-1397 -1444 0
-1397 -1445 0
-1397 -1446 0
-1397 -1447 0
-1397 -1448 0
-1397 -1449 0
-1397 -1450 0
-1397 -1451 0
-1397 -1452 0
-1397 -1453 0
-1397 -1454 0
-1397 -1455 0
-1397 -1456 0
-1397 -1457 0
-1397 -1458 0
-1397 -1459 0
-1397 -1460 0
-1397 -1461 0
-1397 -1462 0
-1397 -1463 0
-1398 -1399 0
-1398 -1400 0
-1398 -1401 0
-1398 -1402 0
-1398 -1403 0
-1398 -1404 0
-1398 -1405 0
-1398 -1406 0
-1398 -1407 0
-1398 -1408 0
-1398 -1409 0
-1398 -1410 0
-1398 -1411 0
-1398 -1412 0
-1398 -1413 0
-1398 -1414 0
-1398 -1415 0
-1398 -1416 0
-1398 -1417 0
-1398 -1418 0
-1398 -1419 0
-1398 -1420 0
-1398 -1421 0
-1398 -1422 0
-1398 -1423 0
-1398 -1424 0
-1398 -1425 0
-1398 -1426 0
-1398 -1427 0
-1398 -1428 0
-1398 -1429 0
-1398 -1430 0
-1398 -1431 0
-1398 -1432 0
-1398 -1433 0
-1398 -1434 0
-1398 -1435 0
-1398 -1436 0
-1398 -1437 0
-1398 -1438 0
-1398 -1439 0
-1398 -1440 0
-1398 -1441 0
-1398 -1442 0
-1398 -1443 0
-1398 -1444 0
-1398 -1445 0
-1398 -1446 0
-1398 -1447 0
-1398 -1448 0
-1398 -1449 0
-1398 -1450 0
-1398 -1451 0
-1398 -1452 0
-1398 -1453 0
-1398 -1454 0
-1398 -1455 0
-1398 -1456 0
-1398 -1457 0
-1398 -1458 0
-1398 -1459 0
-1398 -1460 0
-1398 -1461 0
-1398 -1462 0
-1398 -1463 0
-1399 -1400 0
-1399 -1401 0
-1399 -1402 0
-1399 -1403 0
-1399 -1404 0
-1399 -1405 0
-1399 -1406 0
-1399 -1407 0
-1399 -1408 0
-1399 -1409 0
-1399 -1410 0
-1399 -1411 0
-1399 -1412 0
-1399 -1413 0
-1399 -1414 0
-1399 -1415 0
-1399 -1416 0
-1399 -1417 0
-1399 -1418 0
-1399 -1419 0
-1399 -1420 0
-1399 -1421 0
-1399 -1422 0
-1399 -1423 0
-1399 -1424 0
-1399 -1425 0
-1399 -1426 0
-1399 -1427 0
-1399 -1428 0
-1399 -1429 0
-1399 -1430 0
-1399 -1431 0
-1399 -1432 0
-1399 -1433 0
-1399 -1434 0
-1399 -1435 0
-1399 -1436 0
-1399 -1437 0
-1399 -1438 0
-1399 -1439 0
-1399 -1440 0
-1399 -1441 0
-1399 -1442 0
-1399 -1443 0
-1399 -1444 0
-1399 -1445 0
-1399 -1446 0
-1399 -1447 0
-1399 -1448 0
-1399 -1449 0
-1399 -1450 0
-1399 -1451 0
-1399 -1452 0
-1399 -1453 0
-1399 -1454 0
-1399 -1455 0
-1399 -1456 0
-1399 -1457 0
-1399 -1458 0
-1399 -1459 0
-1399 -1460 0
-1399 -1461 0
-1399 -1462 0
-1399 -1463 0
-1400 -1401 0
-1400 -1402 0
-1400 -1403 0
-1400 -1404 0
-1400 -1405 0
-1400 -1406 0
-1400 -1407 0
-1400 -1408 0
-1400 -1409 0
-1400 -1410 0
-1400 -1411 0
-1400 -1412 0
-1400 -1413 0
-1400 -1414 0
-1400 -1415 0
-1400 -1416 0
-1400 -1417 0
-1400 -1418 0
-1400 -1419 0
-1400 -1420 0
-1400 -1421 0
-1400 -1422 0
-1400 -1423 0
-1400 -1424 0
-1400 -1425 0
-1400 -1426 0
-1400 -1427 0
-1400 -1428 0
-1400 -1429 0
-1400 -1430 0
-1400 -1431 0
-1400 -1432 0
-1400 -1433 0
-1400 -1434 0
-1400 -1435 0
-1400 -1436 0
-1400 -1437 0
-1400 -1438 0
-1400 -1439 0
-1400 -1440 0
-1400 -1441 0
-1400 -1442 0
-1400 -1443 0
-1400 -1444 0
-1400 -1445 0
-1400 -1446 0
-1400 -1447 0
-1400 -1448 0
-1400 -1449 0
-1400 -1450 0
-1400 -1451 0
-1400 -1452 0
-1400 -1453 0
-1400 -1454 0
-1400 -1455 0
-1400 -1456 0
-1400 -1457 0
-1400 -1458 0
-1400 -1459 0
-1400 -1460 0
-1400 -1461 0
-1400 -1462 0
-1400 -1463 0
-1401 -1402 0
-1401 -1403 0
-1401 -1404 0
-1401 -1405 0
-1401 -1406 0
-1401 -1407 0
-1401 -1408 0
-1401 -1409 0
-1401 -1410 0
-1401 -1411 0
-1401 -1412 0
-1401 -1413 0
-1401 -1414 0
-1401 -1415 0
-1401 -1416 0
-1401 -1417 0
-1401 -1418 0
-1401 -1419 0
-1401 -1420 0
-1401 -1421 0
-1401 -1422 0
-1401 -1423 0
-1401 -1424 0
-1401 -1425 0
-1401 -1426 0
-1401 -1427 0
-1401 -1428 0
-1401 -1429 0
-1401 -1430 0
-1401 -1431 0
-1401 -1432 0
-1401 -1433 0
-1401 -1434 0
-1401 -1435 0
-1401 -1436 0
-1401 -1437 0
-1401 -1438 0
-1401 -1439 0
-1401 -1440 0
-1401 -1441 0
-1401 -1442 0
-1401 -1443 0
-1401 -1444 0
-1401 -1445 0
-1401 -1446 0
-1401 -1447 0
-1401 -1448 0
-1401 -1449 0
-1401 -1450 0
-1401 -1451 0
-1401 -1452 0
-1401 -1453 0
-1401 -1454 0
-1401 -1455 0
-1401 -1456 0
-1401 -1457 0
-1401 -1458 0
-1401 -1459 0
-1401 -1460 0
-1401 -1461 0
-1401 -1462 0
-1401 -1463 0
-1402 -1403 0
-1402 -1404 0
-1402 -1405 0
-1402 -1406 0
-1402 -1407 0
-1402 -1408 0
-1402 -1409 0
-1402 -1410 0
-1402 -1411 0
-1402 -1412 0
-1402 -1413 0
-1402 -1414 0
-1402 -1415 0
-1402 -1416 0
-1402 -1417 0
-1402 -1418 0
-1402 -1419 0
-1402 -1420 0
-1402 -1421 0
-1402 -1422 0
-1402 -1423 0
-1402 -1424 0
-1402 -1425 0
-1402 -1426 0
-1402 -1427 0
-1402 -1428 0
-1402 -1429 0
-1402 -1430 0
-1402 -1431 0
-1402 -1432 0
-1402 -1433 0
-1402 -1434 0
-1402 -1435 0
-1402 -1436 0
-1402 -1437 0
-1402 -1438 0
-1402 -1439 0
-1402 -1440 0
-1402 -1441 0
-1402 -1442 0
-1402 -1443 0
-1402 -1444 0
-1402 -1445 0
-1402 -1446 0
-1402 -1447 0
-1402 -1448 0
-1402 -1449 0
-1402 -1450 0
-1402 -1451 0
-1402 -1452 0
-1402 -1453 0
-1402 -1454 0
-1402 -1455 0
-1402 -1456 0
-1402 -1457 0
-1402 -1458 0
-1402 -1459 0
-1402 -1460 0
-1402 -1461 0
-1402 -1462 0
-1402 -1463 0
-1403 -1404 0
-1403 -1405 0
-1403 -1406 0
-1403 -1407 0
-1403 -1408 0
-1403 -1409 0
-1403 -1410 0
-1403 -1411 0
-1403 -1412 0
-1403 -1413 0
-1403 -1414 0
-1403 -1415 0
-1403 -1416 0
-1403 -1417 0
-1403 -1418 0
-1403 -1419 0
-1403 -1420 0
-1403 -1421 0
-1403 -1422 0
-1403 -1423 0
-1403 -1424 0
-1403 -1425 0
-1403 -1426 0
-1403 -1427 0
-1403 -1428 0
-1403 -1429 0
-1403 -1430 0
-1403 -1431 0
-1403 -1432 0
-1403 -1433 0
-1403 -1434 0
-1403 -1435 0
-1403 -1436 0
-1403 -1437 0
-1403 -1438 0
-1403 -1439 0
-1403 -1440 0
-1403 -1441 0
-1403 -1442 0
-1403 -1443 0
-1403 -1444 0
-1403 -1445 0
-1403 -1446 0
-1403 -1447 0
-1403 -1448 0
-1403 -1449 0
-1403 -1450 0
-1403 -1451 0
-1403 -1452 0
-1403 -1453 0
-1403 -1454 0
-1403 -1455 0
-1403 -1456 0
-1403 -1457 0
-1403 -1458 0
-1403 -1459 0
-1403 -1460 0
-1403 -1461 0
-1403 -1462 0
-1403 -1463 0
-1404 -1405 0
-1404 -1406 0
-1404 -1407 0
-1404 -1408 0
-1404 -1409 0
-1404 -1410 0
-1404 -1411 0
-1404 -1412 0
-1404 -1413 0
-1404 -1414 0
-1404 -1415 0
-1404 -1416 0
-1404 -1417 0
-1404 -1418 0
-1404 -1419 0
-1404 -1420 0
-1404 -1421 0
-1404 -1422 0
-1404 -1423 0
-1404 -1424 0
-1404 -1425 0
-1404 -1426 0
-1404 -1427 0
-1404 -1428 0
-1404 -1429 0
-1404 -1430 0
-1404 -1431 0
-1404 -1432 0
-1404 -1433 0
-1404 -1434 0
-1404 -1435 0
-1404 -1436 0
-1404 -1437 0
-1404 -1438 0
-1404 -1439 0
-1404 -1440 0
-1404 -1441 0
-1404 -1442 0
-1404 -1443 0
-1404 -1444 0
-1404 -1445 0
-1404 -1446 0
-1404 -1447 0
-1404 -1448 0
-1404 -1449 0
-1404 -1450 0
-1404 -1451 0
-1404 -1452 0
-1404 -1453 0
-1404 -1454 0
-1404 -1455 0
-1404 -1456 0
-1404 -1457 0
-1404 -1458 0
-1404 -1459 0
-1404 -1460 0
-1404 -1461 0
-1404 -1462 0
-1404 -1463 0
-1405 -1406 0
-1405 -1407 0
-1405 -1408 0
-1405 -1409 0
-1405 -1410 0
-1405 -1411 0
-1405 -1412 0
-1405 -1413 0
-1405 -1414 0
-1405 -1415 0
-1405 -1416 0
-1405 -1417 0
-1405 -1418 0
-1405 -1419 0
-1405 -1420 0
-1405 -1421 0
-1405 -1422 0
-1405 -1423 0
-1405 -1424 0
-1405 -1425 0
-1405 -1426 0
-1405 -1427 0
-1405 -1428 0
-1405 -1429 0
-1405 -1430 0
-1405 -1431 0
-1405 -1432 0
-1405 -1433 0
-1405 -1434 0
-1405 -1435 0
-1405 -1436 0
-1405 -1437 0
-1405 -1438 0
-1405 -1439 0
-1405 -1440 0
-1405 -1441 0
-1405 -1442 0
-1405 -1443 0
-1405 -1444 0
-1405 -1445 0
-1405 -1446 0
-1405 -1447 0
-1405 -1448 0
-1405 -1449 0
-1405 -1450 0
-1405 -1451 0
-1405 -1452 0
-1405 -1453 0
-1405 -1454 0
-1405 -1455 0
-1405 -1456 0
-1405 -1457 0
-1405 -1458 0
-1405 -1459 0
-1405 -1460 0
-1405 -1461 0
-1405 -1462 0
-1405 -1463 0
-1406 -1407 0
-1406 -1408 0
-1406 -1409 0
-1406 -1410 0
-1406 -1411 0
-1406 -1412 0
-1406 -1413 0
-1406 -1414 0
-1406 -1415 0
-1406 -1416 0
-1406 -1417 0
-1406 -1418 0
-1406 -1419 0
-1406 -1420 0
-1406 -1421 0
-1406 -1422 0
-1406 -1423 0
-1406 -1424 0
-1406 -1425 0
-1406 -1426 0
-1406 -1427 0
-1406 -1428 0
-1406 -1429 0
-1406 -1430 0
-1406 -1431 0
-1406 -1432 0
-1406 -1433 0
-1406 -1434 0
-1406 -1435 0
-1406 -1436 0
-1406 -1437 0
-1406 -1438 0
-1406 -1439 0
-1406 -1440 0
-1406 -1441 0
-1406 -1442 0
-1406 -1443 0
-1406 -1444 0
-1406 -1445 0
-1406 -1446 0
-1406 -1447 0
-1406 -1448 0
-1406 -1449 0
-1406 -1450 0
-1406 -1451 0
-1406 -1452 0
-1406 -1453 0
-1406 -1454 0
-1406 -1455 0
-1406 -1456 0
-1406 -1457 0
-1406 -1458 0
-1406 -1459 0
-1406 -1460 0
-1406 -1461 0
-1406 -1462 0
-1406 -1463 0
-1407 -1408 0
-1407 -1409 0
-1407 -1410 0
-1407 -1411 0
-1407 -1412 0
-1407 -1413 0
-1407 -1414 0
-1407 -1415 0
-1407 -1416 0
-1407 -1417 0
-1407 -1418 0
-1407 -1419 0
-1407 -1420 0
-1407 -1421 0
-1407 -1422 0
-1407 -1423 0
-1407 -1424 0
-1407 -1425 0
-1407 -1426 0
-1407 -1427 0
-1407 -1428 0
-1407 -1429 0
-1407 -1430 0
-1407 -1431 0
-1407 -1432 0
-1407 -1433 0
-1407 -1434 0
-1407 -1435 0
-1407 -1436 0
-1407 -1437 0
-1407 -1438 0
-1407 -1439 0
-1407 -1440 0
-1407 -1441 0
-1407 -1442 0
-1407 -1443 0
-1407 -1444 0
-1407 -1445 0
-1407 -1446 0
-1407 -1447 0
-1407 -1448 0
-1407 -1449 0
-1407 -1450 0
-1407 -1451 0
-1407 -1452 0
-1407 -1453 0
-1407 -1454 0
-1407 -1455 0
-1407 -1456 0
-1407 -1457 0
-1407 -1458 0
-1407 -1459 0
-1407 -1460 0
-1407 -1461 0
-1407 -1462 0
-1407 -1463 0
-1408 -1409 0
-1408 -1410 0
-1408 -1411 0
-1408 -1412 0
-1408 -1413 0
-1408 -1414 0
-1408 -1415 0
-1408 -1416 0
-1408 -1417 0
-1408 -1418 0
-1408 -1419 0
-1408 -1420 0
-1408 -1421 0
-1408 -1422 0
-1408 -1423 0
-1408 -1424 0
-1408 -1425 0
-1408 -1426 0
-1408 -1427 0
-1408 -1428 0
-1408 -1429 0
-1408 -1430 0
-1408 -1431 0
-1408 -1432 0
-1408 -1433 0
-1408 -1434 0
-1408 -1435 0
-1408 -1436 0
-1408 -1437 0
-1408 -1438 0
-1408 -1439 0
-1408 -1440 0
-1408 -1441 0
-1408 -1442 0
-1408 -1443 0
-1408 -1444 0
-1408 -1445 0
-1408 -1446 0
-1408 -1447 0
-1408 -1448 0
-1408 -1449 0
-1408 -1450 0
-1408 -1451 0
-1408 -1452 0
-1408 -1453 0
-1408 -1454 0
-1408 -1455 0
-1408 -1456 0
-1408 -1457 0
-1408 -1458 0
-1408 -1459 0
-1408 -1460 0
-1408 -1461 0
-1408 -1462 0
-1408 -1463 0
-1409 -1410 0
-1409 -1411 0
-1409 -1412 0
-1409 -1413 0
-1409 -1414 0
-1409 -1415 0
-1409 -1416 0
-1409 -1417 0
-1409 -1418 0
-1409 -1419 0
-1409 -1420 0
-1409 -1421 0
-1409 -1422 0
-1409 -1423 0
-1409 -1424 0
-1409 -1425 0
-1409 -1426 0
-1409 -1427 0
-1409 -1428 0
-1409 -1429 0
-1409 -1430 0
-1409 -1431 0
-1409 -1432 0
-1409 -1433 0
-1409 -1434 0
-1409 -1435 0
-1409 -1436 0
-1409 -1437 0
-1409 -1438 0
-1409 -1439 0
-1409 -1440 0
-1409 -1441 0
-1409 -1442 0
-1409 -1443 0
-1409 -1444 0
-1409 -1445 0
-1409 -1446 0
-1409 -1447 0
-1409 -1448 0
-1409 -1449 0
-1409 -1450 0
-1409 -1451 0
-1409 -1452 0
-1409 -1453 0
-1409 -1454 0
-1409 -1455 0
-1409 -1456 0
-1409 -1457 0
-1409 -1458 0
-1409 -1459 0
-1409 -1460 0
-1409 -1461 0
-1409 -1462 0
-1409 -1463 0
-1410 -1411 0
-1410 -1412 0
-1410 -1413 0
-1410 -1414 0
-1410 -1415 0
-1410 -1416 0
-1410 -1417 0
-1410 -1418 0
-1410 -1419 0
-1410 -1420 0
-1410 -1421 0
-1410 -1422 0
-1410 -1423 0
-1410 -1424 0
-1410 -1425 0
-1410 -1426 0
-1410 -1427 0
-1410 -1428 0
-1410 -1429 0
-1410 -1430 0
-1410 -1431 0
-1410 -1432 0
-1410 -1433 0
-1410 -1434 0
-1410 -1435 0
-1410 -1436 0
-1410 -1437 0
-1410 -1438 0
-1410 -1439 0
-1410 -1440 0
-1410 -1441 0
-1410 -1442 0
-1410 -1443 0
-1410 -1444 0
-1410 -1445 0
-1410 -1446 0
-1410 -1447 0
-1410 -1448 0
-1410 -1449 0
-1410 -1450 0
-1410 -1451 0
-1410 -1452 0
-1410 -1453 0
-1410 -1454 0
-1410 -1455 0
-1410 -1456 0
-1410 -1457 0
-1410 -1458 0
-1410 -1459 0
-1410 -1460 0
-1410 -1461 0
-1410 -1462 0
-1410 -1463 0
-1411 -1412 0
-1411 -1413 0
-1411 -1414 0
-1411 -1415 0
-1411 -1416 0
-1411 -1417 0
-1411 -1418 0
-1411 -1419 0
-1411 -1420 0
-1411 -1421 0
-1411 -1422 0
-1411 -1423 0
-1411 -1424 0
-1411 -1425 0
-1411 -1426 0
-1411 -1427 0
-1411 -1428 0
-1411 -1429 0
-1411 -1430 0
-1411 -1431 0
-1411 -1432 0
-1411 -1433 0
-1411 -1434 0
-1411 -1435 0
-1411 -1436 0
-1411 -1437 0
-1411 -1438 0
-1411 -1439 0
-1411 -1440 0
-1411 -1441 0
-1411 -1442 0
-1411 -1443 0
-1411 -1444 0
-1411 -1445 0
-1411 -1446 0
-1411 -1447 0
-1411 -1448 0
-1411 -1449 0
-1411 -1450 0
-1411 -1451 0
-1411 -1452 0
-1411 -1453 0
-1411 -1454 0
-1411 -1455 0
-1411 -1456 0
-1411 -1457 0
-1411 -1458 0
-1411 -1459 0
-1411 -1460 0
-1411 -1461 0
-1411 -1462 0
-1411 -1463 0
-1412 -1413 0
-1412 -1414 0
-1412 -1415 0
-1412 -1416 0
-1412 -1417 0
-1412 -1418 0
-1412 -1419 0
-1412 -1420 0
-1412 -1421 0
-1412 -1422 0
-1412 -1423 0
-1412 -1424 0
-1412 -1425 0
-1412 -1426 0
-1412 -1427 0
-1412 -1428 0
-1412 -1429 0
-1412 -1430 0
-1412 -1431 0
-1412 -1432 0
-1412 -1433 0
-1412 -1434 0
-1412 -1435 0
-1412 -1436 0
-1412 -1437 0
-1412 -1438 0
-1412 -1439 0
-1412 -1440 0
-1412 -1441 0
-1412 -1442 0
-1412 -1443 0
-1412 -1444 0
-1412 -1445 0
-1412 -1446 0
-1412 -1447 0
-1412 -1448 0
-1412 -1449 0
-1412 -1450 0
-1412 -1451 0
-1412 -1452 0
-1412 -1453 0
-1412 -1454 0
-1412 -1455 0
-1412 -1456 0
-1412 -1457 0
-1412 -1458 0
-1412 -1459 0
-1412 -1460 0
-1412 -1461 0
-1412 -1462 0
-1412 -1463 0
-1413 -1414 0
-1413 -1415 0
-1413 -1416 0
-1413 -1417 0
-1413 -1418 0
-1413 -1419 0
-1413 -1420 0
-1413 -1421 0
-1413 -1422 0
-1413 -1423 0
-1413 -1424 0
-1413 -1425 0
-1413 -1426 0
-1413 -1427 0
-1413 -1428 0
-1413 -1429 0
-1413 -1430 0
-1413 -1431 0
-1413 -1432 0
-1413 -1433 0
-1413 -1434 0
-1413 -1435 0
-1413 -1436 0
-1413 -1437 0
-1413 -1438 0
-1413 -1439 0
-1413 -1440 0
-1413 -1441 0
-1413 -1442 0
-1413 -1443 0
-1413 -1444 0
-1413 -1445 0
-1413 -1446 0
-1413 -1447 0
-1413 -1448 0
-1413 -1449 0
-1413 -1450 0
-1413 -1451 0
-1413 -1452 0
-1413 -1453 0
-1413 -1454 0
-1413 -1455 0
-1413 -1456 0
-1413 -1457 0
-1413 -1458 0
-1413 -1459 0
-1413 -1460 0
-1413 -1461 0
-1413 -1462 0
-1413 -1463 0
-1414 -1415 0
-1414 -1416 0
-1414 -1417 0
-1414 -1418 0
-1414 -1419 0
-1414 -1420 0
-1414 -1421 0
-1414 -1422 0
-1414 -1423 0
-1414 -1424 0
-1414 -1425 0
-1414 -1426 0
-1414 -1427 0
-1414 -1428 0
-1414 -1429 0
-1414 -1430 0
-1414 -1431 0
-1414 -1432 0
-1414 -1433 0
-1414 -1434 0
-1414 -1435 0
-1414 -1436 0
-1414 -1437 0
-1414 -1438 0
-1414 -1439 0
-1414 -1440 0
-1414 -1441 0
-1414 -1442 0
-1414 -1443 0
-1414 -1444 0
-1414 -1445 0
-1414 -1446 0
-1414 -1447 0
-1414 -1448 0
-1414 -1449 0
-1414 -1450 0
-1414 -1451 0
-1414 -1452 0
-1414 -1453 0
-1414 -1454 0
-1414 -1455 0
-1414 -1456 0
-1414 -1457 0
-1414 -1458 0
-1414 -1459 0
-1414 -1460 0
-1414 -1461 0
-1414 -1462 0
-1414 -1463 0
-1415 -1416 0
-1415 -1417 0
-1415 -1418 0
-1415 -1419 0
-1415 -1420 0
-1415 -1421 0
-1415 -1422 0
-1415 -1423 0
-1415 -1424 0
-1415 -1425 0
-1415 -1426 0
-1415 -1427 0
-1415 -1428 0
-1415 -1429 0
-1415 -1430 0
-1415 -1431 0
-1415 -1432 0
-1415 -1433 0
-1415 -1434 0
-1415 -1435 0
-1415 -1436 0
-1415 -1437 0
-1415 -1438 0
-1415 -1439 0
-1415 -1440 0
-1415 -1441 0
-1415 -1442 0
-1415 -1443 0
-1415 -1444 0
-1415 -1445 0
-1415 -1446 0
-1415 -1447 0
-1415 -1448 0
-1415 -1449 0
-1415 -1450 0
-1415 -1451 0
-1415 -1452 0
-1415 -1453 0
-1415 -1454 0
-1415 -1455 0
-1415 -1456 0
-1415 -1457 0
-1415 -1458 0
-1415 -1459 0
-1415 -1460 0
-1415 -1461 0
-1415 -1462 0
-1415 -1463 0
-1416 -1417 0
-1416 -1418 0
-1416 -1419 0
-1416 -1420 0
-1416 -1421 0
-1416 -1422 0
-1416 -1423 0
-1416 -1424 0
-1416 -1425 0
-1416 -1426 0
-1416 -1427 0
-1416 -1428 0
-1416 -1429 0
-1416 -1430 0
-1416 -1431 0
-1416 -1432 0
-1416 -1433 0
-1416 -1434 0
-1416 -1435 0
-1416 -1436 0
-1416 -1437 0
-1416 -1438 0
-1416 -1439 0
-1416 -1440 0
-1416 -1441 0
-1416 -1442 0
-1416 -1443 0
-1416 -1444 0
-1416 -1445 0
-1416 -1446 0
-1416 -1447 0
-1416 -1448 0
-1416 -1449 0
-1416 -1450 0
-1416 -1451 0
-1416 -1452 0
-1416 -1453 0
-1416 -1454 0
-1416 -1455 0
-1416 -1456 0
-1416 -1457 0
-1416 -1458 0
-1416 -1459 0
-1416 -1460 0
-1416 -1461 0
-1416 -1462 0
-1416 -1463 0
-1417 -1418 0
-1417 -1419 0
-1417 -1420 0
-1417 -1421 0
-1417 -1422 0
-1417 -1423 0
-1417 -1424 0
-1417 -1425 0
-1417 -1426 0
-1417 -1427 0
-1417 -1428 0
-1417 -1429 0
-1417 -1430 0
-1417 -1431 0
-1417 -1432 0
-1417 -1433 0
-1417 -1434 0
-1417 -1435 0
-1417 -1436 0
-1417 -1437 0
-1417 -1438 0
-1417 -1439 0
-1417 -1440 0
-1417 -1441 0
-1417 -1442 0
-1417 -1443 0
-1417 -1444 0
-1417 -1445 0
-1417 -1446 0
-1417 -1447 0
-1417 -1448 0
-1417 -1449 0
-1417 -1450 0
-1417 -1451 0
-1417 -1452 0
-1417 -1453 0
-1417 -1454 0
-1417 -1455 0
-1417 -1456 0
-1417 -1457 0
-1417 -1458 0
-1417 -1459 0
-1417 -1460 0
-1417 -1461 0
-1417 -1462 0
-1417 -1463 0
-1418 -1419 0
-1418 -1420 0
-1418 -1421 0
-1418 -1422 0
-1418 -1423 0
-1418 -1424 0
-1418 -1425 0
-1418 -1426 0
-1418 -1427 0
-1418 -1428 0
-1418 -1429 0
-1418 -1430 0
-1418 -1431 0
-1418 -1432 0
-1418 -1433 0
-1418 -1434 0
-1418 -1435 0
-1418 -1436 0
-1418 -1437 0
-1418 -1438 0
-1418 -1439 0
-1418 -1440 0
-1418 -1441 0
-1418 -1442 0
-1418 -1443 0
-1418 -1444 0
-1418 -1445 0
-1418 -1446 0
-1418 -1447 0
-1418 -1448 0
-1418 -1449 0
-1418 -1450 0
-1418 -1451 0
-1418 -1452 0
-1418 -1453 0
-1418 -1454 0
-1418 -1455 0
-1418 -1456 0
-1418 -1457 0
-1418 -1458 0
-1418 -1459 0
-1418 -1460 0
-1418 -1461 0
-1418 -1462 0
-1418 -1463 0
-1419 -1420 0
-1419 -1421 0
-1419 -1422 0
-1419 -1423 0
-1419 -1424 0
-1419 -1425 0
-1419 -1426 0
-1419 -1427 0
-1419 -1428 0
-1419 -1429 0
-1419 -1430 0
-1419 -1431 0
-1419 -1432 0
-1419 -1433 0
-1419 -1434 0
-1419 -1435 0
-1419 -1436 0
-1419 -1437 0
-1419 -1438 0
-1419 -1439 0
-1419 -1440 0
-1419 -1441 0
-1419 -1442 0
-1419 -1443 0
-1419 -1444 0
-1419 -1445 0
-1419 -1446 0
-1419 -1447 0
-1419 -1448 0
-1419 -1449 0
-1419 -1450 0
-1419 -1451 0
-1419 -1452 0
-1419 -1453 0
-1419 -1454 0
-1419 -1455 0
-1419 -1456 0
-1419 -1457 0
-1419 -1458 0
-1419 -1459 0
-1419 -1460 0
-1419 -1461 0
-1419 -1462 0
-1419 -1463 0
-1420 -1421 0
-1420 -1422 0
-1420 -1423 0
-1420 -1424 0
-1420 -1425 0
-1420 -1426 0
-1420 -1427 0
-1420 -1428 0
-1420 -1429 0
-1420 -1430 0
-1420 -1431 0
-1420 -1432 0
-1420 -1433 0
-1420 -1434 0
-1420 -1435 0
-1420 -1436 0
-1420 -1437 0
-1420 -1438 0
-1420 -1439 0
-1420 -1440 0
-1420 -1441 0
-1420 -1442 0
-1420 -1443 0
-1420 -1444 0
-1420 -1445 0
-1420 -1446 0
-1420 -1447 0
-1420 -1448 0
-1420 -1449 0
-1420 -1450 0
-1420 -1451 0
-1420 -1452 0
-1420 -1453 0
-1420 -1454 0
-1420 -1455 0
-1420 -1456 0
-1420 -1457 0
-1420 -1458 0
-1420 -1459 0
-1420 -1460 0
-1420 -1461 0
-1420 -1462 0
-1420 -1463 0
-1421 -1422 0
-1421 -1423 0
-1421 -1424 0
-1421 -1425 0
-1421 -1426 0
-1421 -1427 0
-1421 -1428 0
-1421 -1429 0
-1421 -1430 0
-1421 -1431 0
-1421 -1432 0
-1421 -1433 0
-1421 -1434 0
-1421 -1435 0
-1421 -1436 0
-1421 -1437 0
-1421 -1438 0
-1421 -1439 0
-1421 -1440 0
-1421 -1441 0
-1421 -1442 0
-1421 -1443 0
-1421 -1444 0
-1421 -1445 0
-1421 -1446 0
-1421 -1447 0
-1421 -1448 0
-1421 -1449 0
-1421 -1450 0
-1421 -1451 0
-1421 -1452 0
-1421 -1453 0
-1421 -1454 0
-1421 -1455 0
-1421 -1456 0
-1421 -1457 0
-1421 -1458 0
-1421 -1459 0
-1421 -1460 0
-1421 -1461 0
-1421 -1462 0
-1421 -1463 0
-1422 -1423 0
-1422 -1424 0
-1422 -1425 0
-1422 -1426 0
-1422 -1427 0
-1422 -1428 0
-1422 -1429 0
-1422 -1430 0
-1422 -1431 0
-1422 -1432 0
-1422 -1433 0
-1422 -1434 0
-1422 -1435 0
-1422 -1436 0
-1422 -1437 0
-1422 -1438 0
-1422 -1439 0
-1422 -1440 0
-1422 -1441 0
-1422 -1442 0
-1422 -1443 0
-1422 -1444 0
-1422 -1445 0
-1422 -1446 0
-1422 -1447 0
-1422 -1448 0
-1422 -1449 0
-1422 -1450 0
-1422 -1451 0
-1422 -1452 0
-1422 -1453 0
-1422 -1454 0
-1422 -1455 0
-1422 -1456 0
-1422 -1457 0
-1422 -1458 0
-1422 -1459 0
-1422 -1460 0
-1422 -1461 0
-1422 -1462 0
-1422 -1463 0
-1423 -1424 0
-1423 -1425 0
-1423 -1426 0
-1423 -1427 0
-1423 -1428 0
-1423 -1429 0
-1423 -1430 0
-1423 -1431 0
-1423 -1432 0
-1423 -1433 0
-1423 -1434 0
-1423 -1435 0
-1423 -1436 0
-1423 -1437 0
-1423 -1438 0
-1423 -1439 0
-1423 -1440 0
-1423 -1441 0
-1423 -1442 0
-1423 -1443 0
-1423 -1444 0
-1423 -1445 0
-1423 -1446 0
-1423 -1447 0
-1423 -1448 0
-1423 -1449 0
-1423 -1450 0
-1423 -1451 0
-1423 -1452 0
-1423 -1453 0
-1423 -1454 0
-1423 -1455 0
-1423 -1456 0
-1423 -1457 0
-1423 -1458 0
-1423 -1459 0
-1423 -1460 0
-1423 -1461 0
-1423 -1462 0
-1423 -1463 0
-1424 -1425 0
-1424 -1426 0
-1424 -1427 0
-1424 -1428 0
-1424 -1429 0
-1424 -1430 0
-1424 -1431 0
-1424 -1432 0
-1424 -1433 0
-1424 -1434 0
-1424 -1435 0
-1424 -1436 0
-1424 -1437 0
-1424 -1438 0
-1424 -1439 0
-1424 -1440 0
-1424 -1441 0
-1424 -1442 0
-1424 -1443 0
-1424 -1444 0
-1424 -1445 0
-1424 -1446 0
-1424 -1447 0
-1424 -1448 0
-1424 -1449 0
-1424 -1450 0
-1424 -1451 0
-1424 -1452 0
-1424 -1453 0
-1424 -1454 0
-1424 -1455 0
-1424 -1456 0
-1424 -1457 0
-1424 -1458 0
-1424 -1459 0
-1424 -1460 0
-1424 -1461 0
-1424 -1462 0
-1424 -1463 0
-1425 -1426 0
-1425 -1427 0
-1425 -1428 0
-1425 -1429 0
-1425 -1430 0
-1425 -1431 0
-1425 -1432 0
-1425 -1433 0
-1425 -1434 0
-1425 -1435 0
-1425 -1436 0
-1425 -1437 0
-1425 -1438 0
-1425 -1439 0
-1425 -1440 0
-1425 -1441 0
-1425 -1442 0
-1425 -1443 0
-1425 -1444 0
-1425 -1445 0
-1425 -1446 0
-1425 -1447 0
-1425 -1448 0
-1425 -1449 0
-1425 -1450 0
-1425 -1451 0
-1425 -1452 0
-1425 -1453 0
-1425 -1454 0
-1425 -1455 0
-1425 -1456 0
-1425 -1457 0
-1425 -1458 0
-1425 -1459 0
-1425 -1460 0
-1425 -1461 0
-1425 -1462 0
-1425 -1463 0
-1426 -1427 0
-1426 -1428 0
-1426 -1429 0
-1426 -1430 0
-1426 -1431 0
-1426 -1432 0
-1426 -1433 0
-1426 -1434 0
-1426 -1435 0
-1426 -1436 0
-1426 -1437 0
-1426 -1438 0
-1426 -1439 0
-1426 -1440 0
-1426 -1441 0
-1426 -1442 0
-1426 -1443 0
-1426 -1444 0
-1426 -1445 0
-1426 -1446 0
-1426 -1447 0
-1426 -1448 0
-1426 -1449 0
-1426 -1450 0
-1426 -1451 0
-1426 -1452 0
-1426 -1453 0
-1426 -1454 0
-1426 -1455 0
-1426 -1456 0
-1426 -1457 0
-1426 -1458 0
-1426 -1459 0
-1426 -1460 0
-1426 -1461 0
-1426 -1462 0
-1426 -1463 0
-1427 -1428 0
-1427 -1429 0
-1427 -1430 0
-1427 -1431 0
-1427 -1432 0
-1427 -1433 0
-1427 -1434 0
-1427 -1435 0
-1427 -1436 0
-1427 -1437 0
-1427 -1438 0
-1427 -1439 0
-1427 -1440 0
-1427 -1441 0
-1427 -1442 0
-1427 -1443 0
-1427 -1444 0
-1427 -1445 0
-1427 -1446 0
-1427 -1447 0
-1427 -1448 0
-1427 -1449 0
-1427 -1450 0
-1427 -1451 0
-1427 -1452 0
-1427 -1453 0
-1427 -1454 0
-1427 -1455 0
-1427 -1456 0
-1427 -1457 0
-1427 -1458 0
-1427 -1459 0
-1427 -1460 0
-1427 -1461 0
-1427 -1462 0
-1427 -1463 0
-1428 -1429 0
-1428 -1430 0
-1428 -1431 0
-1428 -1432 0
-1428 -1433 0
-1428 -1434 0
-1428 -1435 0
-1428 -1436 0
-1428 -1437 0
-1428 -1438 0
-1428 -1439 0
-1428 -1440 0
-1428 -1441 0
-1428 -1442 0
-1428 -1443 0
-1428 -1444 0
-1428 -1445 0
-1428 -1446 0
-1428 -1447 0
-1428 -1448 0
-1428 -1449 0
-1428 -1450 0
-1428 -1451 0
-1428 -1452 0
-1428 -1453 0
-1428 -1454 0
-1428 -1455 0
-1428 -1456 0
-1428 -1457 0
-1428 -1458 0
-1428 -1459 0
-1428 -1460 0
-1428 -1461 0
-1428 -1462 0
-1428 -1463 0
-1429 -1430 0
-1429 -1431 0
-1429 -1432 0
-1429 -1433 0
-1429 -1434 0
-1429 -1435 0
-1429 -1436 0
-1429 -1437 0
-1429 -1438 0
-1429 -1439 0
-1429 -1440 0
-1429 -1441 0
-1429 -1442 0
-1429 -1443 0
-1429 -1444 0
-1429 -1445 0
-1429 -1446 0
-1429 -1447 0
-1429 -1448 0
-1429 -1449 0
-1429 -1450 0
-1429 -1451 0
-1429 -1452 0
-1429 -1453 0
-1429 -1454 0
-1429 -1455 0
-1429 -1456 0
-1429 -1457 0
-1429 -1458 0
-1429 -1459 0
-1429 -1460 0
-1429 -1461 0
-1429 -1462 0
-1429 -1463 0
-1430 -1431 0
-1430 -1432 0
-1430 -1433 0
-1430 -1434 0
-1430 -1435 0
-1430 -1436 0
-1430 -1437 0
-1430 -1438 0
-1430 -1439 0
-1430 -1440 0
-1430 -1441 0
-1430 -1442 0
-1430 -1443 0
-1430 -1444 0
-1430 -1445 0
-1430 -1446 0
-1430 -1447 0
-1430 -1448 0
-1430 -1449 0
-1430 -1450 0
-1430 -1451 0
-1430 -1452 0
-1430 -1453 0
-1430 -1454 0
-1430 -1455 0
-1430 -1456 0
-1430 -1457 0
-1430 -1458 0
-1430 -1459 0
-1430 -1460 0
-1430 -1461 0
-1430 -1462 0
-1430 -1463 0
-1431 -1432 0
-1431 -1433 0
-1431 -1434 0
-1431 -1435 0
-1431 -1436 0
-1431 -1437 0
-1431 -1438 0
-1431 -1439 0
-1431 -1440 0
-1431 -1441 0
-1431 -1442 0
-1431 -1443 0
-1431 -1444 0
-1431 -1445 0
-1431 -1446 0
-1431 -1447 0
-1431 -1448 0
-1431 -1449 0
-1431 -1450 0
-1431 -1451 0
-1431 -1452 0
-1431 -1453 0
-1431 -1454 0
-1431 -1455 0
-1431 -1456 0
-1431 -1457 0
-1431 -1458 0
-1431 -1459 0
-1431 -1460 0
-1431 -1461 0
-1431 -1462 0
-1431 -1463 0
-1432 -1433 0
-1432 -1434 0
-1432 -1435 0
-1432 -1436 0
-1432 -1437 0
-1432 -1438 0
-1432 -1439 0
-1432 -1440 0
-1432 -1441 0
-1432 -1442 0
-1432 -1443 0
-1432 -1444 0
-1432 -1445 0
-1432 -1446 0
-1432 -1447 0
-1432 -1448 0
-1432 -1449 0
-1432 -1450 0
-1432 -1451 0
-1432 -1452 0
-1432 -1453 0
-1432 -1454 0
-1432 -1455 0
-1432 -1456 0
-1432 -1457 0
-1432 -1458 0
-1432 -1459 0
-1432 -1460 0
-1432 -1461 0
-1432 -1462 0
-1432 -1463 0
-1433 -1434 0
-1433 -1435 0
-1433 -1436 0
-1433 -1437 0
-1433 -1438 0
-1433 -1439 0
-1433 -1440 0
-1433 -1441 0
-1433 -1442 0
-1433 -1443 0
-1433 -1444 0
-1433 -1445 0
-1433 -1446 0
-1433 -1447 0
-1433 -1448 0
-1433 -1449 0
-1433 -1450 0
-1433 -1451 0
-1433 -1452 0
-1433 -1453 0
-1433 -1454 0
-1433 -1455 0
-1433 -1456 0
-1433 -1457 0
-1433 -1458 0
-1433 -1459 0
-1433 -1460 0
-1433 -1461 0
-1433 -1462 0
-1433 -1463 0
-1434 -1435 0
-1434 -1436 0
-1434 -1437 0
-1434 -1438 0
-1434 -1439 0
-1434 -1440 0
-1434 -1441 0
-1434 -1442 0
-1434 -1443 0
-1434 -1444 0
-1434 -1445 0
-1434 -1446 0
-1434 -1447 0
-1434 -1448 0
-1434 -1449 0
-1434 -1450 0
-1434 -1451 0
-1434 -1452 0
-1434 -1453 0
-1434 -1454 0
-1434 -1455 0
-1434 -1456 0
-1434 -1457 0
-1434 -1458 0
-1434 -1459 0
-1434 -1460 0
-1434 -1461 0
-1434 -1462 0
-1434 -1463 0
-1435 -1436 0
-1435 -1437 0
-1435 -1438 0
-1435 -1439 0
-1435 -1440 0
-1435 -1441 0
-1435 -1442 0
-1435 -1443 0
-1435 -1444 0
-1435 -1445 0
-1435 -1446 0
-1435 -1447 0
-1435 -1448 0
-1435 -1449 0
-1435 -1450 0
-1435 -1451 0
-1435 -1452 0
-1435 -1453 0
-1435 -1454 0
-1435 -1455 0
-1435 -1456 0
-1435 -1457 0
-1435 -1458 0
-1435 -1459 0
-1435 -1460 0
-1435 -1461 0
-1435 -1462 0
-1435 -1463 0
-1436 -1437 0
-1436 -1438 0
-1436 -1439 0
-1436 -1440 0
-1436 -1441 0
-1436 -1442 0
-1436 -1443 0
-1436 -1444 0
-1436 -1445 0
-1436 -1446 0
-1436 -1447 0
-1436 -1448 0
-1436 -1449 0
-1436 -1450 0
-1436 -1451 0
-1436 -1452 0
-1436 -1453 0
-1436 -1454 0
-1436 -1455 0
-1436 -1456 0
-1436 -1457 0
-1436 -1458 0
-1436 -1459 0
-1436 -1460 0
-1436 -1461 0
-1436 -1462 0
-1436 -1463 0
-1437 -1438 0
-1437 -1439 0
-1437 -1440 0
-1437 -1441 0
-1437 -1442 0
-1437 -1443 0
-1437 -1444 0
-1437 -1445 0
-1437 -1446 0
-1437 -1447 0
-1437 -1448 0
-1437 -1449 0
-1437 -1450 0
-1437 -1451 0
-1437 -1452 0
-1437 -1453 0
-1437 -1454 0
-1437 -1455 0
-1437 -1456 0
-1437 -1457 0
-1437 -1458 0
-1437 -1459 0
-1437 -1460 0
-1437 -1461 0
-1437 -1462 0
-1437 -1463 0
-1438 -1439 0
-1438 -1440 0
-1438 -1441 0
-1438 -1442 0
-1438 -1443 0
-1438 -1444 0
-1438 -1445 0
-1438 -1446 0
-1438 -1447 0
-1438 -1448 0
-1438 -1449 0
-1438 -1450 0
-1438 -1451 0
-1438 -1452 0
-1438 -1453 0
-1438 -1454 0
-1438 -1455 0
-1438 -1456 0
-1438 -1457 0
-1438 -1458 0
-1438 -1459 0
-1438 -1460 0
-1438 -1461 0
-1438 -1462 0
-1438 -1463 0
-1439 -1440 0
-1439 -1441 0
-1439 -1442 0
-1439 -1443 0
-1439 -1444 0
-1439 -1445 0
-1439 -1446 0
-1439 -1447 0
-1439 -1448 0
-1439 -1449 0
-1439 -1450 0
-1439 -1451 0
-1439 -1452 0
-1439 -1453 0
-1439 -1454 0
-1439 -1455 0
-1439 -1456 0
-1439 -1457 0
-1439 -1458 0
-1439 -1459 0
-1439 -1460 0
-1439 -1461 0
-1439 -1462 0
-1439 -1463 0
-1440 -1441 0
-1440 -1442 0
-1440 -1443 0
-1440 -1444 0
-1440 -1445 0
-1440 -1446 0
-1440 -1447 0
-1440 -1448 0
-1440 -1449 0
-1440 -1450 0
-1440 -1451 0
-1440 -1452 0
-1440 -1453 0
-1440 -1454 0
-1440 -1455 0
-1440 -1456 0
-1440 -1457 0
-1440 -1458 0
-1440 -1459 0
-1440 -1460 0
-1440 -1461 0
-1440 -1462 0
-1440 -1463 0
-1441 -1442 0
-1441 -1443 0
-1441 -1444 0
-1441 -1445 0
-1441 -1446 0
-1441 -1447 0
-1441 -1448 0
-1441 -1449 0
-1441 -1450 0
-1441 -1451 0
-1441 -1452 0
-1441 -1453 0
-1441 -1454 0
-1441 -1455 0
-1441 -1456 0
-1441 -1457 0
-1441 -1458 0
-1441 -1459 0
-1441 -1460 0
-1441 -1461 0
-1441 -1462 0
-1441 -1463 0
-1442 -1443 0
-1442 -1444 0
-1442 -1445 0
-1442 -1446 0
-1442 -1447 0
-1442 -1448 0
-1442 -1449 0
-1442 -1450 0
-1442 -1451 0
-1442 -1452 0
-1442 -1453 0
-1442 -1454 0
-1442 -1455 0
-1442 -1456 0
-1442 -1457 0
-1442 -1458 0
-1442 -1459 0
-1442 -1460 0
-1442 -1461 0
-1442 -1462 0
-1442 -1463 0
-1443 -1444 0
-1443 -1445 0
-1443 -1446 0
-1443 -1447 0
-1443 -1448 0
-1443 -1449 0
-1443 -1450 0
-1443 -1451 0
-1443 -1452 0
-1443 -1453 0
-1443 -1454 0
-1443 -1455 0
-1443 -1456 0
-1443 -1457 0
-1443 -1458 0
-1443 -1459 0
-1443 -1460 0
-1443 -1461 0
-1443 -1462 0
-1443 -1463 0
-1444 -1445 0
-1444 -1446 0
-1444 -1447 0
-1444 -1448 0
-1444 -1449 0
-1444 -1450 0
-1444 -1451 0
-1444 -1452 0
-1444 -1453 0
-1444 -1454 0
-1444 -1455 0
-1444 -1456 0
-1444 -1457 0
-1444 -1458 0
-1444 -1459 0
-1444 -1460 0
-1444 -1461 0
-1444 -1462 0
-1444 -1463 0
-1445 -1446 0
-1445 -1447 0
-1445 -1448 0
-1445 -1449 0
-1445 -1450 0
-1445 -1451 0
-1445 -1452 0
-1445 -1453 0
-1445 -1454 0
-1445 -1455 0
-1445 -1456 0
-1445 -1457 0
-1445 -1458 0
-1445 -1459 0
-1445 -1460 0
-1445 -1461 0
-1445 -1462 0
-1445 -1463 0
-1446 -1447 0
-1446 -1448 0
-1446 -1449 0
-1446 -1450 0
-1446 -1451 0
-1446 -1452 0
-1446 -1453 0
-1446 -1454 0
-1446 -1455 0
-1446 -1456 0
-1446 -1457 0
-1446 -1458 0
-1446 -1459 0
-1446 -1460 0
-1446 -1461 0
-1446 -1462 0
-1446 -1463 0
-1447 -1448 0
-1447 -1449 0
-1447 -1450 0
-1447 -1451 0
-1447 -1452 0
-1447 -1453 0
-1447 -1454 0
-1447 -1455 0
-1447 -1456 0
-1447 -1457 0
-1447 -1458 0
-1447 -1459 0
-1447 -1460 0
-1447 -1461 0
-1447 -1462 0
-1447 -1463 0
-1448 -1449 0
-1448 -1450 0
-1448 -1451 0
-1448 -1452 0
-1448 -1453 0
-1448 -1454 0
-1448 -1455 0
-1448 -1456 0
-1448 -1457 0
-1448 -1458 0
-1448 -1459 0
-1448 -1460 0
-1448 -1461 0
-1448 -1462 0
-1448 -1463 0
-1449 -1450 0
-1449 -1451 0
-1449 -1452 0
-1449 -1453 0
-1449 -1454 0
-1449 -1455 0
-1449 -1456 0
-1449 -1457 0
-1449 -1458 0
-1449 -1459 0
-1449 -1460 0
-1449 -1461 0
-1449 -1462 0
-1449 -1463 0
-1450 -1451 0
-1450 -1452 0
-1450 -1453 0
-1450 -1454 0
-1450 -1455 0
-1450 -1456 0
-1450 -1457 0
-1450 -1458 0
-1450 -1459 0
-1450 -1460 0
-1450 -1461 0
-1450 -1462 0
-1450 -1463 0
-1451 -1452 0
-1451 -1453 0
-1451 -1454 0
-1451 -1455 0
-1451 -1456 0
-1451 -1457 0
-1451 -1458 0
-1451 -1459 0
-1451 -1460 0
-1451 -1461 0
-1451 -1462 0
-1451 -1463 0
-1452 -1453 0
-1452 -1454 0
-1452 -1455 0
-1452 -1456 0
-1452 -1457 0
-1452 -1458 0
-1452 -1459 0
-1452 -1460 0
-1452 -1461 0
-1452 -1462 0
-1452 -1463 0
-1453 -1454 0
-1453 -1455 0
-1453 -1456 0
-1453 -1457 0
-1453 -1458 0
-1453 -1459 0
-1453 -1460 0
-1453 -1461 0
-1453 -1462 0
-1453 -1463 0
-1454 -1455 0
-1454 -1456 0
-1454 -1457 0
-1454 -1458 0
-1454 -1459 0
-1454 -1460 0
-1454 -1461 0
-1454 -1462 0
-1454 -1463 0
-1455 -1456 0
-1455 -1457 0
-1455 -1458 0
-1455 -1459 0
-1455 -1460 0
-1455 -1461 0
-1455 -1462 0
-1455 -1463 0
-1456 -1457 0
-1456 -1458 0
-1456 -1459 0
-1456 -1460 0
-1456 -1461 0
-1456 -1462 0
-1456 -1463 0
-1457 -1458 0
-1457 -1459 0
-1457 -1460 0
-1457 -1461 0
-1457 -1462 0
-1457 -1463 0
-1458 -1459 0
-1458 -1460 0
-1458 -1461 0
-1458 -1462 0
-1458 -1463 0
-1459 -1460 0
-1459 -1461 0
-1459 -1462 0
-1459 -1463 0
-1460 -1461 0
-1460 -1462 0
-1460 -1463 0
-1461 -1462 0
-1461 -1463 0
-1462 -1463 0
-597 746 1380 1381 1382 1383 1384 1385 1386 1387 1388 1389 1390 1391 1392 1393 1394 1395 1396 1397 1398 1399 1400 1401 1402 1403 0
597 -746 1380 1381 1382 1383 1384 1385 1386 1387 1388 1389 1390 1391 1392 1393 1394 1395 1396 1397 1398 1399 1400 1401 1402 1403 0
-598 747 1380 1381 1382 1383 1384 1385 1386 1387 1388 1389 1390 1391 1392 1393 1394 1395 1396 1397 1398 1399 1400 1401 1402 1403 0
598 -747 1380 1381 1382 1383 1384 1385 1386 1387 1388 1389 1390 1391 1392 1393 1394 1395 1396 1397 1398 1399 1400 1401 1402 1403 0
-599 748 1380 1381 1382 1383 1384 1385 1386 1387 1388 1389 1390 1391 1392 1393 1394 1395 1396 1397 1398 1399 1400 1401 1402 1403 0
599 -748 1380 1381 1382 1383 1384 1385 1386 1387 1388 1389 1390 1391 1392 1393 1394 1395 1396 1397 1398 1399 1400 1401 1402 1403 0
-600 749 1380 1381 1382 1383 1384 1385 1386 1387 1388 1389 1390 1391 1392 1393 1394 1395 1396 1397 1398 1399 1400 1401 1402 1403 0
600 -749 1380 1381 1382 1383 1384 1385 1386 1387 1388 1389 1390 1391 1392 1393 1394 1395 1396 1397 1398 1399 1400 1401 1402 1403 0
-601 750 1380 1381 1382 1383 1384 1385 1386 1387 1388 1389 1390 1391 1392 1393 1394 1395 1396 1397 1398 1399 1400 1401 1402 1403 0
601 -750 1380 1381 1382 1383 1384 1385 1386 1387 1388 1389 1390 1391 1392 1393 1394 1395 1396 1397 1398 1399 1400 1401 1402 1403 0
-602 751 1380 1381 1382 1383 1384 1385 1386 1387 1388 1389 1390 1391 1392 1393 1394 1395 1396 1397 1398 1399 1400 1401 1402 1403 0
602 -751 1380 1381 1382 1383 1384 1385 1386 1387 1388 1389 1390 1391 1392 1393 1394 1395 1396 1397 1398 1399 1400 1401 1402 1403 0
-603 752 1380 1381 1382 1383 1384 1385 1386 1387 1388 1389 1390 1391 1392 1393 1394 1395 1396 1397 1398 1399 1400 1401 1402 1403 0
603 -752 1380 1381 1382 1383 1384 1385 1386 1387 1388 1389 1390 1391 1392 1393 1394 1395 1396 1397 1398 1399 1400 1401 1402 1403 0
-604 753 1380 1381 1382 1383 1384 1385 1386 1387 1388 1389 1390 1391 1392 1393 1394 1395 1396 1397 1398 1399 1400 1401 1402 1403 0
604 -753 1380 1381 1382 1383 1384 1385 1386 1387 1388 1389 1390 1391 1392 1393 1394 1395 1396 1397 1398 1399 1400 1401 1402 1403 0
-605 754 1380 1381 1382 1383 1384 1385 1386 1387 1388 1389 1390 1391 1392 1393 1394 1395 1396 1397 1398 1399 1400 1401 1402 1403 0
605 -754 1380 1381 1382 1383 1384 1385 1386 1387 1388 1389 1390 1391 1392 1393 1394 1395 1396 1397 1398 1399 1400 1401 1402 1403 0
-606 755 1380 1381 1382 1383 1384 1385 1386 1387 1388 1389 1390 1391 1392 1393 1394 1395 1396 1397 1398 1399 1400 1401 1402 1403 0
606 -755 1380 1381 1382 1383 1384 1385 1386 1387 1388 1389 1390 1391 1392 1393 1394 1395 1396 1397 1398 1399 1400 1401 1402 1403 0
-656 805 1404 1405 1406 1407 1408 1409 1410 1411 1412 1413 1414 1415 1416 1417 1418 1419 1420 1421 1422 1423 1424 1425 1426 1427 0
656 -805 1404 1405 1406 1407 1408 1409 1410 1411 1412 1413 1414 1415 1416 1417 1418 1419 1420 1421 1422 1423 1424 1425 1426 1427 0
-657 806 1404 1405 1406 1407 1408 1409 1410 1411 1412 1413 1414 1415 1416 1417 1418 1419 1420 1421 1422 1423 1424 1425 1426 1427 0
657 -806 1404 1405 1406 1407 1408 1409 1410 1411 1412 1413 1414 1415 1416 1417 1418 1419 1420 1421 1422 1423 1424 1425 1426 1427 0
-658 807 1404 1405 1406 1407 1408 1409 1410 1411 1412 1413 1414 1415 1416 1417 1418 1419 1420 1421 1422 1423 1424 1425 1426 1427 0
658 -807 1404 1405 1406 1407 1408 1409 1410 1411 1412 1413 1414 1415 1416 1417 1418 1419 1420 1421 1422 1423 1424 1425 1426 1427 0
-659 808 1404 1405 1406 1407 1408 1409 1410 1411 1412 1413 1414 1415 1416 1417 1418 1419 1420 1421 1422 1423 1424 1425 1426 1427 0
659 -808 1404 1405 1406 1407 1408 1409 1410 1411 1412 1413 1414 1415 1416 1417 1418 1419 1420 1421 1422 1423 1424 1425 1426 1427 0
-660 809 1404 1405 1406 1407 1408 1409 1410 1411 1412 1413 1414 1415 1416 1417 1418 1419 1420 1421 1422 1423 1424 1425 1426 1427 0
660 -809 1404 1405 1406 1407 1408 1409 1410 1411 1412 1413 1414 1415 1416 1417 1418 1419 1420 1421 1422 1423 1424 1425 1426 1427 0
-661 810 1404 1405 1406 1407 1408 1409 1410 1411 1412 1413 1414 1415 1416 1417 1418 1419 1420 1421 1422 1423 1424 1425 1426 1427 0
661 -810 1404 1405 1406 1407 1408 1409 1410 1411 1412 1413 1414 1415 1416 1417 1418 1419 1420 1421 1422 1423 1424 1425 1426 1427 0
-662 811 1404 1405 1406 1407 1408 1409 1410 1411 1412 1413 1414 1415 1416 1417 1418 1419 1420 1421 1422 1423 1424 1425 1426 1427 0
662 -811 1404 1405 1406 1407 1408 1409 1410 1411 1412 1413 1414 1415 1416 1417 1418 1419 1420 1421 1422 1423 1424 1425 1426 1427 0
-663 812 1404 1405 1406 1407 1408 1409 1410 1411 1412 1413 1414 1415 1416 1417 1418 1419 1420 1421 1422 1423 1424 1425 1426 1427 0
663 -812 1404 1405 1406 1407 1408 1409 1410 1411 1412 1413 1414 1415 1416 1417 1418 1419 1420 1421 1422 1423 1424 1425 1426 1427 0
-664 813 1404 1405 1406 1407 1408 1409 1410 1411 1412 1413 1414 1415 1416 1417 1418 1419 1420 1421 1422 1423 1424 1425 1426 1427 0
664 -813 1404 1405 1406 1407 1408 1409 1410 1411 1412 1413 1414 1415 1416 1417 1418 1419 1420 1421 1422 1423 1424 1425 1426 1427 0
-665 814 1404 1405 1406 1407 1408 1409 1410 1411 1412 1413 1414 1415 1416 1417 1418 1419 1420 1421 1422 1423 1424 1425 1426 1427 0
665 -814 1404 1405 1406 1407 1408 1409 1410 1411 1412 1413 1414 1415 1416 1417 1418 1419 1420 1421 1422 1423 1424 1425 1426 1427 0
-691 840 1428 1429 1430 1431 1432 1433 1434 1435 1436 1437 1438 1439 1440 1441 1442 1443 1444 1445 1446 1447 0
691 -840 1428 1429 1430 1431 1432 1433 1434 1435 1436 1437 1438 1439 1440 1441 1442 1443 1444 1445 1446 1447 0
-692 841 1428 1429 1430 1431 1432 1433 1434 1435 1436 1437 1438 1439 1440 1441 1442 1443 1444 1445 1446 1447 0
692 -841 1428 1429 1430 1431 1432 1433 1434 1435 1436 1437 1438 1439 1440 1441 1442 1443 1444 1445 1446 1447 0
-693 842 1428 1429 1430 1431 1432 1433 1434 1435 1436 1437 1438 1439 1440 1441 1442 1443 1444 1445 1446 1447 0
693 -842 1428 1429 1430 1431 1432 1433 1434 1435 1436 1437 1438 1439 1440 1441 1442 1443 1444 1445 1446 1447 0
-694 843 1428 1429 1430 1431 1432 1433 1434 1435 1436 1437 1438 1439 1440 1441 1442 1443 1444 1445 1446 1447 0
694 -843 1428 1429 1430 1431 1432 1433 1434 1435 1436 1437 1438 1439 1440 1441 1442 1443 1444 1445 1446 1447 0
-695 844 1428 1429 1430 1431 1432 1433 1434 1435 1436 1437 1438 1439 1440 1441 1442 1443 1444 1445 1446 1447 0
695 -844 1428 1429 1430 1431 1432 1433 1434 1435 1436 1437 1438 1439 1440 1441 1442 1443 1444 1445 1446 1447 0
-696 845 1428 1429 1430 1431 1432 1433 1434 1435 1436 1437 1438 1439 1440 1441 1442 1443 1444 1445 1446 1447 0
696 -845 1428 1429 1430 1431 1432 1433 1434 1435 1436 1437 1438 1439 1440 1441 1442 1443 1444 1445 1446 1447 0
-697 846 1428 1429 1430 1431 1432 1433 1434 1435 1436 1437 1438 1439 1440 1441 1442 1443 1444 1445 1446 1447 0
697 -846 1428 1429 1430 1431 1432 1433 1434 1435 1436 1437 1438 1439 1440 1441 1442 1443 1444 1445 1446 1447 0
-698 847 1428 1429 1430 1431 1432 1433 1434 1435 1436 1437 1438 1439 1440 1441 1442 1443 1444 1445 1446 1447 0
698 -847 1428 1429 1430 1431 1432 1433 1434 1435 1436 1437 1438 1439 1440 1441 1442 1443 1444 1445 1446 1447 0
-699 848 1428 1429 1430 1431 1432 1433 1434 1435 1436 1437 1438 1439 1440 1441 1442 1443 1444 1445 1446 1447 0
699 -848 1428 1429 1430 1431 1432 1433 1434 1435 1436 1437 1438 1439 1440 1441 1442 1443 1444 1445 1446 1447 0
-721 870 1448 1449 1450 1451 1452 1453 1454 1455 1456 1457 1458 1459 1460 1461 1462 1463 0
721 -870 1448 1449 1450 1451 1452 1453 1454 1455 1456 1457 1458 1459 1460 1461 1462 1463 0
-722 871 1448 1449 1450 1451 1452 1453 1454 1455 1456 1457 1458 1459 1460 1461 1462 1463 0
722 -871 1448 1449 1450 1451 1452 1453 1454 1455 1456 1457 1458 1459 1460 1461 1462 1463 0
-723 872 1448 1449 1450 1451 1452 1453 1454 1455 1456 1457 1458 1459 1460 1461 1462 1463 0
723 -872 1448 1449 1450 1451 1452 1453 1454 1455 1456 1457 1458 1459 1460 1461 1462 1463 0
-724 873 1448 1449 1450 1451 1452 1453 1454 1455 1456 1457 1458 1459 1460 1461 1462 1463 0
724 -873 1448 1449 1450 1451 1452 1453 1454 1455 1456 1457 1458 1459 1460 1461 1462 1463 0
-725 874 1448 1449 1450 1451 1452 1453 1454 1455 1456 1457 1458 1459 1460 1461 1462 1463 0
725 -874 1448 1449 1450 1451 1452 1453 1454 1455 1456 1457 1458 1459 1460 1461 1462 1463 0
-726 875 1448 1449 1450 1451 1452 1453 1454 1455 1456 1457 1458 1459 1460 1461 1462 1463 0
726 -875 1448 1449 1450 1451 1452 1453 1454 1455 1456 1457 1458 1459 1460 1461 1462 1463 0
-727 876 1448 1449 1450 1451 1452 1453 1454 1455 1456 1457 1458 1459 1460 1461 1462 1463 0
727 -876 1448 1449 1450 1451 1452 1453 1454 1455 1456 1457 1458 1459 1460 1461 1462 1463 0
-728 877 1448 1449 1450 1451 1452 1453 1454 1455 1456 1457 1458 1459 1460 1461 1462 1463 0
728 -877 1448 1449 1450 1451 1452 1453 1454 1455 1456 1457 1458 1459 1460 1461 1462 1463 0
-1464 760 0
-1464 895 0
-1464 909 0
-1464 901 0
-1464 -746 -752 0
-1465 760 0
-1465 896 0
-1465 909 0
-1465 901 0
-1465 -747 -752 0
-1466 760 0
-1466 897 0
-1466 909 0
-1466 901 0
-1466 -748 -752 0
-1467 760 0
-1467 898 0
-1467 909 0
-1467 901 0
-1467 -749 -752 0
-1468 760 0
-1468 899 0
-1468 909 0
-1468 901 0
-1468 -750 -752 0
-1469 760 0
-1469 900 0
-1469 909 0
-1469 901 0
-1469 -751 -752 0
-1470 760 0
-1470 895 0
-1470 909 0
-1470 805 0
-1470 -814 0
-1470 -965 0
-1470 -811 902 0
-1470 -811 -746 -753 0
-1470 -812 903 0
-1470 -812 -746 -754 0
-1470 -813 904 0
-1470 -813 -746 -755 0
-1471 760 0
-1471 896 0
-1471 909 0
-1471 806 0
-1471 -814 0
-1471 -965 0
-1471 -811 902 0
-1471 -811 -747 -753 0
-1471 -812 903 0
-1471 -812 -747 -754 0
-1471 -813 904 0
-1471 -813 -747 -755 0
-1472 760 0
-1472 897 0
-1472 909 0
-1472 807 0
-1472 -814 0
-1472 -965 0
-1472 -811 902 0
-1472 -811 -748 -753 0
-1472 -812 903 0
-1472 -812 -748 -754 0
-1472 -813 904 0
-1472 -813 -748 -755 0
-1473 760 0
-1473 898 0
-1473 909 0
-1473 808 0
-1473 -814 0
-1473 -965 0
-1473 -811 902 0
-1473 -811 -749 -753 0
-1473 -812 903 0
-1473 -812 -749 -754 0
-1473 -813 904 0
-1473 -813 -749 -755 0
-1474 760 0
-1474 899 0
-1474 909 0
-1474 809 0
-1474 -814 0
-1474 -965 0
-1474 -811 902 0
-1474 -811 -750 -753 0
-1474 -812 903 0
-1474 -812 -750 -754 0
-1474 -813 904 0
-1474 -813 -750 -755 0
-1475 760 0
-1475 900 0
-1475 909 0
-1475 810 0
-1475 -814 0
-1475 -965 0
-1475 -811 902 0
-1475 -811 -751 -753 0
-1475 -812 903 0
-1475 -812 -751 -754 0
-1475 -813 904 0
-1475 -813 -751 -755 0
-1476 760 0
-1476 895 0
-1476 909 0
-1476 840 0
-1476 -848 0
-1476 -999 0
-1476 -845 902 0
-1476 -845 -746 -753 0
-1476 -846 903 0
-1476 -846 -746 -754 0
-1476 -847 904 0
-1476 -847 -746 -755 0
-1477 760 0
-1477 896 0
-1477 909 0
-1477 840 841 0
-1477 -848 0
-1477 -999 0
-1477 -845 902 0
-1477 -845 -747 -753 0
-1477 -846 903 0
-1477 -846 -747 -754 0
-1477 -847 904 0
-1477 -847 -747 -755 0
-1478 760 0
-1478 897 0
-1478 909 0
-1478 841 842 0
-1478 -848 0
-1478 -999 0
-1478 -845 902 0
-1478 -845 -748 -753 0
-1478 -846 903 0
-1478 -846 -748 -754 0
-1478 -847 904 0
-1478 -847 -748 -755 0
-1479 760 0
-1479 898 0
-1479 909 0
-1479 842 843 0
-1479 -848 0
-1479 -999 0
-1479 -845 902 0
-1479 -845 -749 -753 0
-1479 -846 903 0
-1479 -846 -749 -754 0
-1479 -847 904 0
-1479 -847 -749 -755 0
-1480 760 0
-1480 899 0
-1480 909 0
-1480 843 844 0
-1480 -848 0
-1480 -999 0
-1480 -845 902 0
-1480 -845 -750 -753 0
-1480 -846 903 0
-1480 -846 -750 -754 0
-1480 -847 904 0
-1480 -847 -750 -755 0
-1481 760 0
-1481 900 0
-1481 909 0
-1481 844 0
-1481 -848 0
-1481 -999 0
-1481 -845 902 0
-1481 -845 -751 -753 0
-1481 -846 903 0
-1481 -846 -751 -754 0
-1481 -847 904 0
-1481 -847 -751 -755 0
-1482 760 0
-1482 895 0
-1482 909 0
-1482 870 0
-1482 -877 0
-1482 -1028 0
-1482 -874 902 0
-1482 -874 -746 -753 0
-1482 -875 903 0
-1482 -875 -746 -754 0
-1482 -876 904 0
-1482 -876 -746 -755 0
-1483 760 0
-1483 896 0
-1483 909 0
-1483 870 871 0
-1483 -877 0
-1483 -1028 0
-1483 -874 902 0
-1483 -874 -747 -753 0
-1483 -875 903 0
-1483 -875 -747 -754 0
-1483 -876 904 0
-1483 -876 -747 -755 0
-1484 760 0
-1484 897 0
-1484 909 0
-1484 870 871 872 0
-1484 -877 0
-1484 -1028 0
-1484 -874 902 0
-1484 -874 -748 -753 0
-1484 -875 903 0
-1484 -875 -748 -754 0
-1484 -876 904 0
-1484 -876 -748 -755 0
-1485 760 0
-1485 898 0
-1485 909 0
-1485 871 872 873 0
-1485 -877 0
-1485 -1028 0
-1485 -874 902 0
-1485 -874 -749 -753 0
-1485 -875 903 0
-1485 -875 -749 -754 0
-1485 -876 904 0
-1485 -876 -749 -755 0
-1486 760 0
-1486 899 0
-1486 909 0
-1486 872 873 0
-1486 -877 0
-1486 -1028 0
-1486 -874 902 0
-1486 -874 -750 -753 0
-1486 -875 903 0
-1486 -875 -750 -754 0
-1486 -876 904 0
-1486 -876 -750 -755 0
-1487 760 0
-1487 900 0
-1487 909 0
-1487 873 0
-1487 -877 0
-1487 -1028 0
-1487 -874 902 0
-1487 -874 -751 -753 0
-1487 -875 903 0
-1487 -875 -751 -754 0
-1487 -876 904 0
-1487 -876 -751 -755 0
-1488 816 0
-1488 954 0
-1488 965 0
-1488 960 0
-1488 -805 -811 0
-1489 816 0
-1489 955 0
-1489 965 0
-1489 960 0
-1489 -806 -811 0
-1490 816 0
-1490 956 0
-1490 965 0
-1490 960 0
-1490 -807 -811 0
-1491 816 0
-1491 957 0
-1491 965 0
-1491 960 0
-1491 -808 -811 0
-1492 816 0
-1492 958 0
-1492 965 0
-1492 960 0
-1492 -809 -811 0
-1493 816 0
-1493 959 0
-1493 965 0
-1493 960 0
-1493 -810 -811 0
-1494 816 0
-1494 954 0
-1494 965 0
-1494 746 0
-1494 -755 0
-1494 -909 0
-1494 -752 961 0
-1494 -752 -805 -812 0
-1494 -753 962 0
-1494 -753 -805 -813 0
-1494 -754 963 0
-1494 -754 -805 -814 0
-1495 816 0
-1495 955 0
-1495 965 0
-1495 747 0
-1495 -755 0
-1495 -909 0
-1495 -752 961 0
-1495 -752 -806 -812 0
-1495 -753 962 0
-1495 -753 -806 -813 0
-1495 -754 963 0
-1495 -754 -806 -814 0
-1496 816 0
-1496 956 0
-1496 965 0
-1496 748 0
-1496 -755 0
-1496 -909 0
-1496 -752 961 0
-1496 -752 -807 -812 0
-1496 -753 962 0
-1496 -753 -807 -813 0
-1496 -754 963 0
-1496 -754 -807 -814 0
-1497 816 0
-1497 957 0
-1497 965 0
-1497 749 0
-1497 -755 0
-1497 -909 0
-1497 -752 961 0
-1497 -752 -808 -812 0
-1497 -753 962 0
-1497 -753 -808 -813 0
-1497 -754 963 0
-1497 -754 -808 -814 0
-1498 816 0
-1498 958 0
-1498 965 0
-1498 750 0
-1498 -755 0
-1498 -909 0
-1498 -752 961 0
-1498 -752 -809 -812 0
-1498 -753 962 0
-1498 -753 -809 -813 0
-1498 -754 963 0
-1498 -754 -809 -814 0
-1499 816 0
-1499 959 0
-1499 965 0
-1499 751 0
-1499 -755 0
-1499 -909 0
-1499 -752 961 0
-1499 -752 -810 -812 0
-1499 -753 962 0
-1499 -753 -810 -813 0
-1499 -754 963 0
-1499 -754 -810 -814 0
-1500 816 0
-1500 954 0
-1500 965 0
-1500 840 0
-1500 -848 0
-1500 -999 0
-1500 -845 961 0
-1500 -845 -805 -812 0
-1500 -846 962 0
-1500 -846 -805 -813 0
-1500 -847 963 0
-1500 -847 -805 -814 0
-1501 816 0
-1501 955 0
-1501 965 0
-1501 840 841 0
-1501 -848 0
-1501 -999 0
-1501 -845 961 0
-1501 -845 -806 -812 0
-1501 -846 962 0
-1501 -846 -806 -813 0
-1501 -847 963 0
-1501 -847 -806 -814 0
-1502 816 0
-1502 956 0
-1502 965 0
-1502 841 842 0
-1502 -848 0
-1502 -999 0
-1502 -845 961 0
-1502 -845 -807 -812 0
-1502 -846 962 0
-1502 -846 -807 -813 0
-1502 -847 963 0
-1502 -847 -807 -814 0
-1503 816 0
-1503 957 0
-1503 965 0
-1503 842 843 0
-1503 -848 0
-1503 -999 0
-1503 -845 961 0
-1503 -845 -808 -812 0
-1503 -846 962 0
-1503 -846 -808 -813 0
-1503 -847 963 0
-1503 -847 -808 -814 0
-1504 816 0
-1504 958 0
-1504 965 0
-1504 843 844 0
-1504 -848 0
-1504 -999 0
-1504 -845 961 0
-1504 -845 -809 -812 0
-1504 -846 962 0
-1504 -846 -809 -813 0
-1504 -847 963 0
-1504 -847 -809 -814 0
-1505 816 0
-1505 959 0
-1505 965 0
-1505 844 0
-1505 -848 0
-1505 -999 0
-1505 -845 961 0
-1505 -845 -810 -812 0
-1505 -846 962 0
-1505 -846 -810 -813 0
-1505 -847 963 0
-1505 -847 -810 -814 0
-1506 816 0
-1506 954 0
-1506 965 0
-1506 870 0
-1506 -877 0
-1506 -1028 0
-1506 -874 961 0
-1506 -874 -805 -812 0
-1506 -875 962 0
-1506 -875 -805 -813 0
-1506 -876 963 0
-1506 -876 -805 -814 0
-1507 816 0
-1507 955 0
-1507 965 0
-1507 870 871 0
-1507 -877 0
-1507 -1028 0
-1507 -874 961 0
-1507 -874 -806 -812 0
-1507 -875 962 0
-1507 -875 -806 -813 0
-1507 -876 963 0
-1507 -876 -806 -814 0
-1508 816 0
-1508 956 0
-1508 965 0
-1508 870 871 872 0
-1508 -877 0
-1508 -1028 0
-1508 -874 961 0
-1508 -874 -807 -812 0
-1508 -875 962 0
-1508 -875 -807 -813 0
-1508 -876 963 0
-1508 -876 -807 -814 0
-1509 816 0
-1509 957 0
-1509 965 0
-1509 871 872 873 0
-1509 -877 0
-1509 -1028 0
-1509 -874 961 0
-1509 -874 -808 -812 0
-1509 -875 962 0
-1509 -875 -808 -813 0
-1509 -876 963 0
-1509 -876 -808 -814 0
-1510 816 0
-1510 958 0
-1510 965 0
-1510 872 873 0
-1510 -877 0
-1510 -1028 0
-1510 -874 961 0
-1510 -874 -809 -812 0
-1510 -875 962 0
-1510 -875 -809 -813 0
-1510 -876 963 0
-1510 -876 -809 -814 0
-1511 816 0
-1511 959 0
-1511 965 0
-1511 873 0
-1511 -877 0
-1511 -1028 0
-1511 -874 961 0
-1511 -874 -810 -812 0
-1511 -875 962 0
-1511 -875 -810 -813 0
-1511 -876 963 0
-1511 -876 -810 -814 0
-1512 850 0
-1512 989 0
-1512 999 0
-1512 994 0
-1512 -840 -845 0
-1513 850 0
-1513 990 0
-1513 999 0
-1513 994 0
-1513 -841 -845 0
-1514 850 0
-1514 991 0
-1514 999 0
-1514 994 0
-1514 -842 -845 0
-1515 850 0
-1515 992 0
-1515 999 0
-1515 994 0
-1515 -843 -845 0
-1516 850 0
-1516 993 0
-1516 999 0
-1516 994 0
-1516 -844 -845 0
-1517 850 0
-1517 989 0
-1517 999 0
-1517 746 747 0
-1517 -755 0
-1517 -909 0
-1517 -752 995 0
-1517 -752 -840 -846 0
-1517 -753 996 0
-1517 -753 -840 -847 0
-1517 -754 997 0
-1517 -754 -840 -848 0
-1518 850 0
-1518 990 0
-1518 999 0
-1518 747 748 0
-1518 -755 0
-1518 -909 0
-1518 -752 995 0
-1518 -752 -841 -846 0
-1518 -753 996 0
-1518 -753 -841 -847 0
-1518 -754 997 0
-1518 -754 -841 -848 0
-1519 850 0
-1519 991 0
-1519 999 0
-1519 748 749 0
-1519 -755 0
-1519 -909 0
-1519 -752 995 0
-1519 -752 -842 -846 0
-1519 -753 996 0
-1519 -753 -842 -847 0
-1519 -754 997 0
-1519 -754 -842 -848 0
-1520 850 0
-1520 992 0
-1520 999 0
-1520 749 750 0
-1520 -755 0
-1520 -909 0
-1520 -752 995 0
-1520 -752 -843 -846 0
-1520 -753 996 0
-1520 -753 -843 -847 0
-1520 -754 997 0
-1520 -754 -843 -848 0
-1521 850 0
-1521 993 0
-1521 999 0
-1521 750 751 0
-1521 -755 0
-1521 -909 0
-1521 -752 995 0
-1521 -752 -844 -846 0
-1521 -753 996 0
-1521 -753 -844 -847 0
-1521 -754 997 0
-1521 -754 -844 -848 0
-1522 850 0
-1522 989 0
-1522 999 0
-1522 805 806 0
-1522 -814 0
-1522 -965 0
-1522 -811 995 0
-1522 -811 -840 -846 0
-1522 -812 996 0
-1522 -812 -840 -847 0
-1522 -813 997 0
-1522 -813 -840 -848 0
-1523 850 0
-1523 990 0
-1523 999 0
-1523 806 807 0
-1523 -814 0
-1523 -965 0
-1523 -811 995 0
-1523 -811 -841 -846 0
-1523 -812 996 0
-1523 -812 -841 -847 0
-1523 -813 997 0
-1523 -813 -841 -848 0
-1524 850 0
-1524 991 0
-1524 999 0
-1524 807 808 0
-1524 -814 0
-1524 -965 0
-1524 -811 995 0
-1524 -811 -842 -846 0
-1524 -812 996 0
-1524 -812 -842 -847 0
-1524 -813 997 0
-1524 -813 -842 -848 0
-1525 850 0
-1525 992 0
-1525 999 0
-1525 808 809 0
-1525 -814 0
-1525 -965 0
-1525 -811 995 0
-1525 -811 -843 -846 0
-1525 -812 996 0
-1525 -812 -843 -847 0
-1525 -813 997 0
-1525 -813 -843 -848 0
-1526 850 0
-1526 993 0
-1526 999 0
-1526 809 810 0
-1526 -814 0
-1526 -965 0
-1526 -811 995 0
-1526 -811 -844 -846 0
-1526 -812 996 0
-1526 -812 -844 -847 0
-1526 -813 997 0
-1526 -813 -844 -848 0
-1527 850 0
-1527 989 0
-1527 999 0
-1527 870 871 0
-1527 -877 0
-1527 -1028 0
-1527 -874 995 0
-1527 -874 -840 -846 0
-1527 -875 996 0
-1527 -875 -840 -847 0
-1527 -876 997 0
-1527 -876 -840 -848 0
-1528 850 0
-1528 990 0
-1528 999 0
-1528 870 871 872 0
-1528 -877 0
-1528 -1028 0
-1528 -874 995 0
-1528 -874 -841 -846 0
-1528 -875 996 0
-1528 -875 -841 -847 0
-1528 -876 997 0
-1528 -876 -841 -848 0
-1529 850 0
-1529 991 0
-1529 999 0
-1529 870 871 872 873 0
-1529 -877 0
-1529 -1028 0
-1529 -874 995 0
-1529 -874 -842 -846 0
-1529 -875 996 0
-1529 -875 -842 -847 0
-1529 -876 997 0
-1529 -876 -842 -848 0
-1530 850 0
-1530 992 0
-1530 999 0
-1530 871 872 873 0
-1530 -877 0
-1530 -1028 0
-1530 -874 995 0
-1530 -874 -843 -846 0
-1530 -875 996 0
-1530 -875 -843 -847 0
-1530 -876 997 0
-1530 -876 -843 -848 0
-1531 850 0
-1531 993 0
-1531 999 0
-1531 872 873 0
-1531 -877 0
-1531 -1028 0
-1531 -874 995 0
-1531 -874 -844 -846 0
-1531 -875 996 0
-1531 -875 -844 -847 0
-1531 -876 997 0
-1531 -876 -844 -848 0
-1532 879 0
-1532 1019 0
-1532 1028 0
-1532 1023 0
-1532 -870 -874 0
-1533 879 0
-1533 1020 0
-1533 1028 0
-1533 1023 0
-1533 -871 -874 0
-1534 879 0
-1534 1021 0
-1534 1028 0
-1534 1023 0
-1534 -872 -874 0
-1535 879 0
-1535 1022 0
-1535 1028 0
-1535 1023 0
-1535 -873 -874 0
-1536 879 0
-1536 1019 0
-1536 1028 0
-1536 746 747 748 0
-1536 -755 0
-1536 -909 0
-1536 -752 1024 0
-1536 -752 -870 -875 0
-1536 -753 1025 0
-1536 -753 -870 -876 0
-1536 -754 1026 0
-1536 -754 -870 -877 0
-1537 879 0
-1537 1020 0
-1537 1028 0
-1537 747 748 749 0
-1537 -755 0
-1537 -909 0
-1537 -752 1024 0
-1537 -752 -871 -875 0
-1537 -753 1025 0
-1537 -753 -871 -876 0
-1537 -754 1026 0
-1537 -754 -871 -877 0
-1538 879 0
-1538 1021 0
-1538 1028 0
-1538 748 749 750 0
-1538 -755 0
-1538 -909 0
-1538 -752 1024 0
-1538 -752 -872 -875 0
-1538 -753 1025 0
-1538 -753 -872 -876 0
-1538 -754 1026 0
-1538 -754 -872 -877 0
-1539 879 0
-1539 1022 0
-1539 1028 0
-1539 749 750 751 0
-1539 -755 0
-1539 -909 0
-1539 -752 1024 0
-1539 -752 -873 -875 0
-1539 -753 1025 0
-1539 -753 -873 -876 0
-1539 -754 1026 0
-1539 -754 -873 -877 0
-1540 879 0
-1540 1019 0
-1540 1028 0
-1540 805 806 807 0
-1540 -814 0
-1540 -965 0
-1540 -811 1024 0
-1540 -811 -870 -875 0
-1540 -812 1025 0
-1540 -812 -870 -876 0
-1540 -813 1026 0
-1540 -813 -870 -877 0
-1541 879 0
-1541 1020 0
-1541 1028 0
-1541 806 807 808 0
-1541 -814 0
-1541 -965 0
-1541 -811 1024 0
-1541 -811 -871 -875 0
-1541 -812 1025 0
-1541 -812 -871 -876 0
-1541 -813 1026 0
-1541 -813 -871 -877 0
-1542 879 0
-1542 1021 0
-1542 1028 0
-1542 807 808 809 0
-1542 -814 0
-1542 -965 0
-1542 -811 1024 0
-1542 -811 -872 -875 0
-1542 -812 1025 0
-1542 -812 -872 -876 0
-1542 -813 1026 0
-1542 -813 -872 -877 0
-1543 879 0
-1543 1022 0
-1543 1028 0
-1543 808 809 810 0
-1543 -814 0
-1543 -965 0
-1543 -811 1024 0
-1543 -811 -873 -875 0
-1543 -812 1025 0
-1543 -812 -873 -876 0
-1543 -813 1026 0
-1543 -813 -873 -877 0
-1544 879 0
-1544 1019 0
-1544 1028 0
-1544 840 841 842 0
-1544 -848 0
-1544 -999 0
-1544 -845 1024 0
-1544 -845 -870 -875 0
-1544 -846 1025 0
-1544 -846 -870 -876 0
-1544 -847 1026 0
-1544 -847 -870 -877 0
-1545 879 0
-1545 1020 0
-1545 1028 0
-1545 840 841 842 843 0
-1545 -848 0
-1545 -999 0
-1545 -845 1024 0
-1545 -845 -871 -875 0
-1545 -846 1025 0
-1545 -846 -871 -876 0
-1545 -847 1026 0
-1545 -847 -871 -877 0
-1546 879 0
-1546 1021 0
-1546 1028 0
-1546 841 842 843 844 0
-1546 -848 0
-1546 -999 0
-1546 -845 1024 0
-1546 -845 -872 -875 0
-1546 -846 1025 0
-1546 -846 -872 -876 0
-1546 -847 1026 0
-1546 -847 -872 -877 0
-1547 879 0
-1547 1022 0
-1547 1028 0
-1547 842 843 844 0
-1547 -848 0
-1547 -999 0
-1547 -845 1024 0
-1547 -845 -873 -875 0
-1547 -846 1025 0
-1547 -846 -873 -876 0
-1547 -847 1026 0
-1547 -847 -873 -877 0
1464 1465 1466 1467 1468 1469 1470 1471 1472 1473 1474 1475 1476 1477 1478 1479 1480 1481 1482 1483 1484 1485 1486 1487 1488 1489 1490 1491 1492 1493 1494 1495 1496 1497 1498 1499 1500 1501 1502 1503 1504 1505 1506 1507 1508 1509 1510 1511 1512 1513 1514 1515 1516 1517 1518 1519 1520 1521 1522 1523 1524 1525 1526 1527 1528 1529 1530 1531 1532 1533 1534 1535 1536 1537 1538 1539 1540 1541 1542 1543 1544 1545 1546 1547 0
-1464 -1465 0
-1464 -1466 0
-1464 -1467 0
-1464 -1468 0
-1464 -1469 0
-1464 -1470 0
-1464 -1471 0
-1464 -1472 0
-1464 -1473 0
-1464 -1474 0
-1464 -1475 0
-1464 -1476 0
-1464 -1477 0
-1464 -1478 0
-1464 -1479 0
-1464 -1480 0
-1464 -1481 0
-1464 -1482 0
-1464 -1483 0
-1464 -1484 0
-1464 -1485 0
-1464 -1486 0
-1464 -1487 0
-1464 -1488 0
-1464 -1489 0
-1464 -1490 0
-1464 -1491 0
-1464 -1492 0
-1464 -1493 0
-1464 -1494 0
-1464 -1495 0
-1464 -1496 0
-1464 -1497 0
-1464 -1498 0
-1464 -1499 0
-1464 -1500 0
-1464 -1501 0
-1464 -1502 0
-1464 -1503 0
-1464 -1504 0
-1464 -1505 0
-1464 -1506 0
-1464 -1507 0
-1464 -1508 0
-1464 -1509 0
-1464 -1510 0
-1464 -1511 0
-1464 -1512 0
-1464 -1513 0
-1464 -1514 0
-1464 -1515 0
-1464 -1516 0
-1464 -1517 0
-1464 -1518 0
-1464 -1519 0
-1464 -1520 0
-1464 -1521 0
-1464 -1522 0
-1464 -1523 0
-1464 -1524 0
-1464 -1525 0
-1464 -1526 0
-1464 -1527 0
-1464 -1528 0
-1464 -1529 0
-1464 -1530 0
-1464 -1531 0
-1464 -1532 0
-1464 -1533 0
-1464 -1534 0
-1464 -1535 0
-1464 -1536 0
-1464 -1537 0
-1464 -1538 0
-1464 -1539 0
-1464 -1540 0
-1464 -1541 0
-1464 -1542 0
-1464 -1543 0
-1464 -1544 0
-1464 -1545 0
-1464 -1546 0
-1464 -1547 0
-1465 -1466 0
-1465 -1467 0
-1465 -1468 0
-1465 -1469 0
-1465 -1470 0
-1465 -1471 0
-1465 -1472 0
-1465 -1473 0
-1465 -1474 0
-1465 -1475 0
-1465 -1476 0
-1465 -1477 0
-1465 -1478 0
-1465 -1479 0
-1465 -1480 0
-1465 -1481 0
-1465 -1482 0
-1465 -1483 0
-1465 -1484 0
-1465 -1485 0
-1465 -1486 0
-1465 -1487 0
-1465 -1488 0
-1465 -1489 0
-1465 -1490 0
-1465 -1491 0
-1465 -1492 0
-1465 -1493 0
-1465 -1494 0
-1465 -1495 0
-1465 -1496 0
-1465 -1497 0
-1465 -1498 0
-1465 -1499 0
-1465 -1500 0
-1465 -1501 0
-1465 -1502 0
-1465 -1503 0
-1465 -1504 0
-1465 -1505 0
-1465 -1506 0
-1465 -1507 0
-1465 -1508 0
-1465 -1509 0
-1465 -1510 0
-1465 -1511 0
-1465 -1512 0
-1465 -1513 0
-1465 -1514 0
-1465 -1515 0
-1465 -1516 0
-1465 -1517 0
-1465 -1518 0
-1465 -1519 0
-1465 -1520 0
-1465 -1521 0
-1465 -1522 0
-1465 -1523 0
-1465 -1524 0
-1465 -1525 0
-1465 -1526 0
-1465 -1527 0
-1465 -1528 0
-1465 -1529 0
-1465 -1530 0
-1465 -1531 0
-1465 -1532 0
-1465 -1533 0
-1465 -1534 0
-1465 -1535 0
-1465 -1536 0
-1465 -1537 0
-1465 -1538 0
-1465 -1539 0
-1465 -1540 0
-1465 -1541 0
-1465 -1542 0
-1465 -1543 0
-1465 -1544 0
-1465 -1545 0
-1465 -1546 0
-1465 -1547 0
-1466 -1467 0
-1466 -1468 0
-1466 -1469 0
-1466 -1470 0
-1466 -1471 0
-1466 -1472 0
-1466 -1473 0
-1466 -1474 0
-1466 -1475 0
-1466 -1476 0
-1466 -1477 0
-1466 -1478 0
-1466 -1479 0
-1466 -1480 0
-1466 -1481 0
-1466 -1482 0
-1466 -1483 0
-1466 -1484 0
-1466 -1485 0
-1466 -1486 0
-1466 -1487 0
-1466 -1488 0
-1466 -1489 0
-1466 -1490 0
-1466 -1491 0
-1466 -1492 0
-1466 -1493 0
-1466 -1494 0
-1466 -1495 0
-1466 -1496 0
-1466 -1497 0
-1466 -1498 0
-1466 -1499 0
-1466 -1500 0
-1466 -1501 0
-1466 -1502 0
-1466 -1503 0
-1466 -1504 0
-1466 -1505 0
-1466 -1506 0
-1466 -1507 0
-1466 -1508 0
-1466 -1509 0
-1466 -1510 0
-1466 -1511 0
-1466 -1512 0
-1466 -1513 0
-1466 -1514 0
-1466 -1515 0
-1466 -1516 0
-1466 -1517 0
-1466 -1518 0
-1466 -1519 0
-1466 -1520 0
-1466 -1521 0
-1466 -1522 0
-1466 -1523 0
-1466 -1524 0
-1466 -1525 0
-1466 -1526 0
-1466 -1527 0
-1466 -1528 0
-1466 -1529 0
-1466 -1530 0
-1466 -1531 0
-1466 -1532 0
-1466 -1533 0
-1466 -1534 0
-1466 -1535 0
-1466 -1536 0
-1466 -1537 0
-1466 -1538 0
-1466 -1539 0
-1466 -1540 0
-1466 -1541 0
-1466 -1542 0
-1466 -1543 0
-1466 -1544 0
-1466 -1545 0
-1466 -1546 0
-1466 -1547 0
-1467 -1468 0
-1467 -1469 0
-1467 -1470 0
-1467 -1471 0
-1467 -1472 0
-1467 -1473 0
-1467 -1474 0
-1467 -1475 0
-1467 -1476 0
-1467 -1477 0
-1467 -1478 0
-1467 -1479 0
-1467 -1480 0
-1467 -1481 0
-1467 -1482 0
-1467 -1483 0
-1467 -1484 0
-1467 -1485 0
-1467 -1486 0
-1467 -1487 0
-1467 -1488 0
-1467 -1489 0
-1467 -1490 0
-1467 -1491 0
-1467 -1492 0
-1467 -1493 0
-1467 -1494 0
-1467 -1495 0
-1467 -1496 0
-1467 -1497 0
-1467 -1498 0
-1467 -1499 0
-1467 -1500 0
-1467 -1501 0
-1467 -1502 0
-1467 -1503 0
-1467 -1504 0
-1467 -1505 0
-1467 -1506 0
-1467 -1507 0
-1467 -1508 0
-1467 -1509 0
-1467 -1510 0
-1467 -1511 0
-1467 -1512 0
-1467 -1513 0
-1467 -1514 0
-1467 -1515 0
-1467 -1516 0
-1467 -1517 0
-1467 -1518 0
-1467 -1519 0
-1467 -1520 0
-1467 -1521 0
-1467 -1522 0
-1467 -1523 0
-1467 -1524 0
-1467 -1525 0
-1467 -1526 0
-1467 -1527 0
-1467 -1528 0
-1467 -1529 0
-1467 -1530 0
-1467 -1531 0
-1467 -1532 0
-1467 -1533 0
-1467 -1534 0
-1467 -1535 0
-1467 -1536 0
-1467 -1537 0
-1467 -1538 0
-1467 -1539 0
-1467 -1540 0
-1467 -1541 0
-1467 -1542 0
-1467 -1543 0
-1467 -1544 0
-1467 -1545 0
-1467 -1546 0
-1467 -1547 0
-1468 -1469 0
-1468 -1470 0
-1468 -1471 0
-1468 -1472 0
-1468 -1473 0
-1468 -1474 0
-1468 -1475 0
-1468 -1476 0
-1468 -1477 0
-1468 -1478 0
-1468 -1479 0
-1468 -1480 0
-1468 -1481 0
-1468 -1482 0
-1468 -1483 0
-1468 -1484 0
-1468 -1485 0
-1468 -1486 0
-1468 -1487 0
-1468 -1488 0
-1468 -1489 0
-1468 -1490 0
-1468 -1491 0
-1468 -1492 0
-1468 -1493 0
-1468 -1494 0
-1468 -1495 0
-1468 -1496 0
-1468 -1497 0
-1468 -1498 0
-1468 -1499 0
-1468 -1500 0
-1468 -1501 0
-1468 -1502 0
-1468 -1503 0
-1468 -1504 0
-1468 -1505 0
-1468 -1506 0
-1468 -1507 0
-1468 -1508 0
-1468 -1509 0
-1468 -1510 0
-1468 -1511 0
-1468 -1512 0
-1468 -1513 0
-1468 -1514 0
-1468 -1515 0
-1468 -1516 0
-1468 -1517 0
-1468 -1518 0
-1468 -1519 0
-1468 -1520 0
-1468 -1521 0
-1468 -1522 0
-1468 -1523 0
-1468 -1524 0
-1468 -1525 0
-1468 -1526 0
-1468 -1527 0
-1468 -1528 0
-1468 -1529 0
-1468 -1530 0
-1468 -1531 0
-1468 -1532 0
-1468 -1533 0
-1468 -1534 0
-1468 -1535 0
-1468 -1536 0
-1468 -1537 0
-1468 -1538 0
-1468 -1539 0
-1468 -1540 0
-1468 -1541 0
-1468 -1542 0
-1468 -1543 0
-1468 -1544 0
-1468 -1545 0
-1468 -1546 0
-1468 -1547 0
-1469 -1470 0
-1469 -1471 0
-1469 -1472 0
-1469 -1473 0
-1469 -1474 0
-1469 -1475 0
-1469 -1476 0
-1469 -1477 0
-1469 -1478 0
-1469 -1479 0
-1469 -1480 0
-1469 -1481 0
-1469 -1482 0
-1469 -1483 0
-1469 -1484 0
-1469 -1485 0
-1469 -1486 0
-1469 -1487 0
-1469 -1488 0
-1469 -1489 0
-1469 -1490 0
-1469 -1491 0
-1469 -1492 0
-1469 -1493 0
-1469 -1494 0
-1469 -1495 0
-1469 -1496 0
-1469 -1497 0
-1469 -1498 0
-1469 -1499 0
-1469 -1500 0
-1469 -1501 0
-1469 -1502 0
-1469 -1503 0
-1469 -1504 0
-1469 -1505 0
-1469 -1506 0
-1469 -1507 0
-1469 -1508 0
-1469 -1509 0
-1469 -1510 0
-1469 -1511 0
-1469 -1512 0
-1469 -1513 0
-1469 -1514 0
-1469 -1515 0
-1469 -1516 0
-1469 -1517 0
-1469 -1518 0
-1469 -1519 0
-1469 -1520 0
-1469 -1521 0
-1469 -1522 0
-1469 -1523 0
-1469 -1524 0
-1469 -1525 0
-1469 -1526 0
-1469 -1527 0
-1469 -1528 0
-1469 -1529 0
-1469 -1530 0
-1469 -1531 0
-1469 -1532 0
-1469 -1533 0
-1469 -1534 0
-1469 -1535 0
-1469 -1536 0
-1469 -1537 0
-1469 -1538 0
-1469 -1539 0
-1469 -1540 0
-1469 -1541 0
-1469 -1542 0
-1469 -1543 0
-1469 -1544 0
-1469 -1545 0
-1469 -1546 0
-1469 -1547 0
-1470 -1471 0
-1470 -1472 0
-1470 -1473 0
-1470 -1474 0
-1470 -1475 0
-1470 -1476 0
-1470 -1477 0
-1470 -1478 0
-1470 -1479 0
-1470 -1480 0
-1470 -1481 0
-1470 -1482 0
-1470 -1483 0
-1470 -1484 0
-1470 -1485 0
-1470 -1486 0
-1470 -1487 0
-1470 -1488 0
-1470 -1489 0
-1470 -1490 0
-1470 -1491 0
-1470 -1492 0
-1470 -1493 0
-1470 -1494 0
-1470 -1495 0
-1470 -1496 0
-1470 -1497 0
-1470 -1498 0
-1470 -1499 0
-1470 -1500 0
-1470 -1501 0
-1470 -1502 0
-1470 -1503 0
-1470 -1504 0
-1470 -1505 0
-1470 -1506 0
-1470 -1507 0
-1470 -1508 0
-1470 -1509 0
-1470 -1510 0
-1470 -1511 0
-1470 -1512 0
-1470 -1513 0
-1470 -1514 0
-1470 -1515 0
-1470 -1516 0
-1470 -1517 0
-1470 -1518 0
-1470 -1519 0
-1470 -1520 0
-1470 -1521 0
-1470 -1522 0
-1470 -1523 0
-1470 -1524 0
-1470 -1525 0
-1470 -1526 0
-1470 -1527 0
-1470 -1528 0
-1470 -1529 0
-1470 -1530 0
-1470 -1531 0
-1470 -1532 0
-1470 -1533 0
-1470 -1534 0
-1470 -1535 0
-1470 -1536 0
-1470 -1537 0
-1470 -1538 0
-1470 -1539 0
-1470 -1540 0
-1470 -1541 0
-1470 -1542 0
-1470 -1543 0
-1470 -1544 0
-1470 -1545 0
-1470 -1546 0
-1470 -1547 0
-1471 -1472 0
-1471 -1473 0
-1471 -1474 0
-1471 -1475 0
-1471 -1476 0
-1471 -1477 0
-1471 -1478 0
-1471 -1479 0
-1471 -1480 0
-1471 -1481 0
-1471 -1482 0
-1471 -1483 0
-1471 -1484 0
-1471 -1485 0
-1471 -1486 0
-1471 -1487 0
-1471 -1488 0
-1471 -1489 0
-1471 -1490 0
-1471 -1491 0
-1471 -1492 0
-1471 -1493 0
-1471 -1494 0
-1471 -1495 0
-1471 -1496 0
-1471 -1497 0
-1471 -1498 0
-1471 -1499 0
-1471 -1500 0
-1471 -1501 0
-1471 -1502 0
-1471 -1503 0
-1471 -1504 0
-1471 -1505 0
-1471 -1506 0
-1471 -1507 0
-1471 -1508 0
-1471 -1509 0
-1471 -1510 0
-1471 -1511 0
-1471 -1512 0
-1471 -1513 0
-1471 -1514 0
-1471 -1515 0
-1471 -1516 0
-1471 -1517 0
-1471 -1518 0
-1471 -1519 0
-1471 -1520 0
-1471 -1521 0
-1471 -1522 0
-1471 -1523 0
-1471 -1524 0
-1471 -1525 0
-1471 -1526 0
-1471 -1527 0
-1471 -1528 0
-1471 -1529 0
-1471 -1530 0
-1471 -1531 0
-1471 -1532 0
-1471 -1533 0
-1471 -1534 0
-1471 -1535 0
-1471 -1536 0
-1471 -1537 0
-1471 -1538 0
-1471 -1539 0
-1471 -1540 0
-1471 -1541 0
-1471 -1542 0
-1471 -1543 0
-1471 -1544 0
-1471 -1545 0
-1471 -1546 0
-1471 -1547 0
-1472 -1473 0
-1472 -1474 0
-1472 -1475 0
-1472 -1476 0
-1472 -1477 0
-1472 -1478 0
-1472 -1479 0
-1472 -1480 0
-1472 -1481 0
-1472 -1482 0
-1472 -1483 0
-1472 -1484 0
-1472 -1485 0
-1472 -1486 0
-1472 -1487 0
-1472 -1488 0
-1472 -1489 0
-1472 -1490 0
-1472 -1491 0
-1472 -1492 0
-1472 -1493 0
-1472 -1494 0
-1472 -1495 0
-1472 -1496 0
-1472 -1497 0
-1472 -1498 0
-1472 -1499 0
-1472 -1500 0
-1472 -1501 0
-1472 -1502 0
-1472 -1503 0
-1472 -1504 0
-1472 -1505 0
-1472 -1506 0
-1472 -1507 0
-1472 -1508 0
-1472 -1509 0
-1472 -1510 0
-1472 -1511 0
-1472 -1512 0
-1472 -1513 0
-1472 -1514 0
-1472 -1515 0
-1472 -1516 0
-1472 -1517 0
-1472 -1518 0
-1472 -1519 0
-1472 -1520 0
-1472 -1521 0
-1472 -1522 0
-1472 -1523 0
-1472 -1524 0
-1472 -1525 0
-1472 -1526 0
-1472 -1527 0
-1472 -1528 0
-1472 -1529 0
-1472 -1530 0
-1472 -1531 0
-1472 -1532 0
-1472 -1533 0
-1472 -1534 0
-1472 -1535 0
-1472 -1536 0
-1472 -1537 0
-1472 -1538 0
-1472 -1539 0
-1472 -1540 0
-1472 -1541 0
-1472 -1542 0
-1472 -1543 0
-1472 -1544 0
-1472 -1545 0
-1472 -1546 0
-1472 -1547 0
-1473 -1474 0
-1473 -1475 0
-1473 -1476 0
-1473 -1477 0
-1473 -1478 0
-1473 -1479 0
-1473 -1480 0
-1473 -1481 0
-1473 -1482 0
-1473 -1483 0
-1473 -1484 0
-1473 -1485 0
-1473 -1486 0
-1473 -1487 0
-1473 -1488 0
-1473 -1489 0
-1473 -1490 0
-1473 -1491 0
-1473 -1492 0
-1473 -1493 0
-1473 -1494 0
-1473 -1495 0
-1473 -1496 0
-1473 -1497 0
-1473 -1498 0
-1473 -1499 0
-1473 -1500 0
-1473 -1501 0
-1473 -1502 0
-1473 -1503 0
-1473 -1504 0
-1473 -1505 0
-1473 -1506 0
-1473 -1507 0
-1473 -1508 0
-1473 -1509 0
-1473 -1510 0
-1473 -1511 0
-1473 -1512 0
-1473 -1513 0
-1473 -1514 0
-1473 -1515 0
-1473 -1516 0
-1473 -1517 0
-1473 -1518 0
-1473 -1519 0
-1473 -1520 0
-1473 -1521 0
-1473 -1522 0
-1473 -1523 0
-1473 -1524 0
-1473 -1525 0
-1473 -1526 0
-1473 -1527 0
-1473 -1528 0
-1473 -1529 0
-1473 -1530 0
-1473 -1531 0
-1473 -1532 0
-1473 -1533 0
-1473 -1534 0
-1473 -1535 0
-1473 -1536 0
-1473 -1537 0
-1473 -1538 0
-1473 -1539 0
-1473 -1540 0
-1473 -1541 0
-1473 -1542 0
-1473 -1543 0
-1473 -1544 0
-1473 -1545 0
-1473 -1546 0
-1473 -1547 0
-1474 -1475 0
-1474 -1476 0
-1474 -1477 0
-1474 -1478 0
-1474 -1479 0
-1474 -1480 0
-1474 -1481 0
-1474 -1482 0
-1474 -1483 0
-1474 -1484 0
-1474 -1485 0
-1474 -1486 0
-1474 -1487 0
-1474 -1488 0
-1474 -1489 0
-1474 -1490 0
-1474 -1491 0
-1474 -1492 0
-1474 -1493 0
-1474 -1494 0
-1474 -1495 0
-1474 -1496 0
-1474 -1497 0
-1474 -1498 0
-1474 -1499 0
-1474 -1500 0
-1474 -1501 0
-1474 -1502 0
-1474 -1503 0
-1474 -1504 0
-1474 -1505 0
-1474 -1506 0
-1474 -1507 0
-1474 -1508 0
-1474 -1509 0
-1474 -1510 0
-1474 -1511 0
-1474 -1512 0
-1474 -1513 0
-1474 -1514 0
-1474 -1515 0
-1474 -1516 0
-1474 -1517 0
-1474 -1518 0
-1474 -1519 0
-1474 -1520 0
-1474 -1521 0
-1474 -1522 0
-1474 -1523 0
-1474 -1524 0
-1474 -1525 0
-1474 -1526 0
-1474 -1527 0
-1474 -1528 0
-1474 -1529 0
-1474 -1530 0
-1474 -1531 0
-1474 -1532 0
-1474 -1533 0
-1474 -1534 0
-1474 -1535 0
-1474 -1536 0
-1474 -1537 0
-1474 -1538 0
-1474 -1539 0
-1474 -1540 0
-1474 -1541 0
-1474 -1542 0
-1474 -1543 0
-1474 -1544 0
-1474 -1545 0
-1474 -1546 0
-1474 -1547 0
-1475 -1476 0
-1475 -1477 0
-1475 -1478 0
-1475 -1479 0
-1475 -1480 0
-1475 -1481 0
-1475 -1482 0
-1475 -1483 0
-1475 -1484 0
-1475 -1485 0
-1475 -1486 0
-1475 -1487 0
-1475 -1488 0
-1475 -1489 0
-1475 -1490 0
-1475 -1491 0
-1475 -1492 0
-1475 -1493 0
-1475 -1494 0
-1475 -1495 0
-1475 -1496 0
-1475 -1497 0
-1475 -1498 0
-1475 -1499 0
-1475 -1500 0
-1475 -1501 0
-1475 -1502 0
-1475 -1503 0
-1475 -1504 0
-1475 -1505 0
-1475 -1506 0
-1475 -1507 0
-1475 -1508 0
-1475 -1509 0
-1475 -1510 0
-1475 -1511 0
-1475 -1512 0
-1475 -1513 0
-1475 -1514 0
-1475 -1515 0
-1475 -1516 0
-1475 -1517 0
-1475 -1518 0
-1475 -1519 0
-1475 -1520 0
-1475 -1521 0
-1475 -1522 0
-1475 -1523 0
-1475 -1524 0
-1475 -1525 0
-1475 -1526 0
-1475 -1527 0
-1475 -1528 0
-1475 -1529 0
-1475 -1530 0
-1475 -1531 0
-1475 -1532 0
-1475 -1533 0
-1475 -1534 0
-1475 -1535 0
-1475 -1536 0
-1475 -1537 0
-1475 -1538 0
-1475 -1539 0
-1475 -1540 0
-1475 -1541 0
-1475 -1542 0
-1475 -1543 0
-1475 -1544 0
-1475 -1545 0
-1475 -1546 0
-1475 -1547 0
-1476 -1477 0
-1476 -1478 0
-1476 -1479 0
-1476 -1480 0
-1476 -1481 0
-1476 -1482 0
-1476 -1483 0
-1476 -1484 0
-1476 -1485 0
-1476 -1486 0
-1476 -1487 0
-1476 -1488 0
-1476 -1489 0
-1476 -1490 0
-1476 -1491 0
-1476 -1492 0
-1476 -1493 0
-1476 -1494 0
-1476 -1495 0
-1476 -1496 0
-1476 -1497 0
-1476 -1498 0
-1476 -1499 0
-1476 -1500 0
-1476 -1501 0
-1476 -1502 0
-1476 -1503 0
-1476 -1504 0
-1476 -1505 0
-1476 -1506 0
-1476 -1507 0
-1476 -1508 0
-1476 -1509 0
-1476 -1510 0
-1476 -1511 0
-1476 -1512 0
-1476 -1513 0
-1476 -1514 0
-1476 -1515 0
-1476 -1516 0
-1476 -1517 0
-1476 -1518 0
-1476 -1519 0
-1476 -1520 0
-1476 -1521 0
-1476 -1522 0
-1476 -1523 0
-1476 -1524 0
-1476 -1525 0
-1476 -1526 0
-1476 -1527 0
-1476 -1528 0
-1476 -1529 0
-1476 -1530 0
-1476 -1531 0
-1476 -1532 0
-1476 -1533 0
-1476 -1534 0
-1476 -1535 0
-1476 -1536 0
-1476 -1537 0
-1476 -1538 0
-1476 -1539 0
-1476 -1540 0
-1476 -1541 0
-1476 -1542 0
-1476 -1543 0
-1476 -1544 0
-1476 -1545 0
-1476 -1546 0
-1476 -1547 0
-1477 -1478 0
-1477 -1479 0
-1477 -1480 0
-1477 -1481 0
-1477 -1482 0
-1477 -1483 0
-1477 -1484 0
-1477 -1485 0
-1477 -1486 0
-1477 -1487 0
-1477 -1488 0
-1477 -1489 0
-1477 -1490 0
-1477 -1491 0
-1477 -1492 0
-1477 -1493 0
-1477 -1494 0
-1477 -1495 0
-1477 -1496 0
-1477 -1497 0
-1477 -1498 0
-1477 -1499 0
-1477 -1500 0
-1477 -1501 0
-1477 -1502 0
-1477 -1503 0
-1477 -1504 0
-1477 -1505 0
-1477 -1506 0
-1477 -1507 0
-1477 -1508 0
-1477 -1509 0
-1477 -1510 0
-1477 -1511 0
-1477 -1512 0
-1477 -1513 0
-1477 -1514 0
-1477 -1515 0
-1477 -1516 0
-1477 -1517 0
-1477 -1518 0
-1477 -1519 0
-1477 -1520 0
-1477 -1521 0
-1477 -1522 0
-1477 -1523 0
-1477 -1524 0
-1477 -1525 0
-1477 -1526 0
-1477 -1527 0
-1477 -1528 0
-1477 -1529 0
-1477 -1530 0
-1477 -1531 0
-1477 -1532 0
-1477 -1533 0
-1477 -1534 0
-1477 -1535 0
-1477 -1536 0
-1477 -1537 0
-1477 -1538 0
-1477 -1539 0
-1477 -1540 0
-1477 -1541 0
-1477 -1542 0
-1477 -1543 0
-1477 -1544 0
-1477 -1545 0
-1477 -1546 0
-1477 -1547 0
-1478 -1479 0
-1478 -1480 0
-1478 -1481 0
-1478 -1482 0
-1478 -1483 0
-1478 -1484 0
-1478 -1485 0
-1478 -1486 0
-1478 -1487 0
-1478 -1488 0
-1478 -1489 0
-1478 -1490 0
-1478 -1491 0
-1478 -1492 0
-1478 -1493 0
-1478 -1494 0
-1478 -1495 0
-1478 -1496 0
-1478 -1497 0
-1478 -1498 0
-1478 -1499 0
-1478 -1500 0
-1478 -1501 0
-1478 -1502 0
-1478 -1503 0
-1478 -1504 0
-1478 -1505 0
-1478 -1506 0
-1478 -1507 0
-1478 -1508 0
-1478 -1509 0
-1478 -1510 0
-1478 -1511 0
-1478 -1512 0
-1478 -1513 0
-1478 -1514 0
-1478 -1515 0
-1478 -1516 0
-1478 -1517 0
-1478 -1518 0
-1478 -1519 0
-1478 -1520 0
-1478 -1521 0
-1478 -1522 0
-1478 -1523 0
-1478 -1524 0
-1478 -1525 0
-1478 -1526 0
-1478 -1527 0
-1478 -1528 0
-1478 -1529 0
-1478 -1530 0
-1478 -1531 0
-1478 -1532 0
-1478 -1533 0
-1478 -1534 0
-1478 -1535 0
-1478 -1536 0
-1478 -1537 0
-1478 -1538 0
-1478 -1539 0
-1478 -1540 0
-1478 -1541 0
-1478 -1542 0
-1478 -1543 0
-1478 -1544 0
-1478 -1545 0
-1478 -1546 0
-1478 -1547 0
-1479 -1480 0
-1479 -1481 0
-1479 -1482 0
-1479 -1483 0
-1479 -1484 0
-1479 -1485 0
-1479 -1486 0
-1479 -1487 0
-1479 -1488 0
-1479 -1489 0
-1479 -1490 0
-1479 -1491 0
-1479 -1492 0
-1479 -1493 0
-1479 -1494 0
-1479 -1495 0
-1479 -1496 0
-1479 -1497 0
-1479 -1498 0
-1479 -1499 0
-1479 -1500 0
-1479 -1501 0
-1479 -1502 0
-1479 -1503 0
-1479 -1504 0
-1479 -1505 0
-1479 -1506 0
-1479 -1507 0
-1479 -1508 0
-1479 -1509 0
-1479 -1510 0
-1479 -1511 0
-1479 -1512 0
-1479 -1513 0
-1479 -1514 0
-1479 -1515 0
-1479 -1516 0
-1479 -1517 0
-1479 -1518 0
-1479 -1519 0
-1479 -1520 0
-1479 -1521 0
-1479 -1522 0
-1479 -1523 0
-1479 -1524 0
-1479 -1525 0
-1479 -1526 0
-1479 -1527 0
-1479 -1528 0
-1479 -1529 0
-1479 -1530 0
-1479 -1531 0
-1479 -1532 0
-1479 -1533 0
-1479 -1534 0
-1479 -1535 0
-1479 -1536 0
-1479 -1537 0
-1479 -1538 0
-1479 -1539 0
-1479 -1540 0
-1479 -1541 0
-1479 -1542 0
-1479 -1543 0
-1479 -1544 0
-1479 -1545 0
-1479 -1546 0
-1479 -1547 0
-1480 -1481 0
-1480 -1482 0
-1480 -1483 0
-1480 -1484 0
-1480 -1485 0
-1480 -1486 0
-1480 -1487 0
-1480 -1488 0
-1480 -1489 0
-1480 -1490 0
-1480 -1491 0
-1480 -1492 0
-1480 -1493 0
-1480 -1494 0
-1480 -1495 0
-1480 -1496 0
-1480 -1497 0
-1480 -1498 0
-1480 -1499 0
-1480 -1500 0
-1480 -1501 0
-1480 -1502 0
-1480 -1503 0
-1480 -1504 0
-1480 -1505 0
-1480 -1506 0
-1480 -1507 0
-1480 -1508 0
-1480 -1509 0
-1480 -1510 0
-1480 -1511 0
-1480 -1512 0
-1480 -1513 0
-1480 -1514 0
-1480 -1515 0
-1480 -1516 0
-1480 -1517 0
-1480 -1518 0
-1480 -1519 0
-1480 -1520 0
-1480 -1521 0
-1480 -1522 0
-1480 -1523 0
-1480 -1524 0
-1480 -1525 0
-1480 -1526 0
-1480 -1527 0
-1480 -1528 0
-1480 -1529 0
-1480 -1530 0
-1480 -1531 0
-1480 -1532 0
-1480 -1533 0
-1480 -1534 0
-1480 -1535 0
-1480 -1536 0
-1480 -1537 0
-1480 -1538 0
-1480 -1539 0
-1480 -1540 0
-1480 -1541 0
-1480 -1542 0
-1480 -1543 0
-1480 -1544 0
-1480 -1545 0
-1480 -1546 0
-1480 -1547 0
-1481 -1482 0
-1481 -1483 0
-1481 -1484 0
-1481 -1485 0
-1481 -1486 0
-1481 -1487 0
-1481 -1488 0
-1481 -1489 0
-1481 -1490 0
-1481 -1491 0
-1481 -1492 0
-1481 -1493 0
-1481 -1494 0
-1481 -1495 0
-1481 -1496 0
-1481 -1497 0
-1481 -1498 0
-1481 -1499 0
-1481 -1500 0
-1481 -1501 0
-1481 -1502 0
-1481 -1503 0
-1481 -1504 0
-1481 -1505 0
-1481 -1506 0
-1481 -1507 0
-1481 -1508 0
-1481 -1509 0
-1481 -1510 0
-1481 -1511 0
-1481 -1512 0
-1481 -1513 0
-1481 -1514 0
-1481 -1515 0
-1481 -1516 0
-1481 -1517 0
-1481 -1518 0
-1481 -1519 0
-1481 -1520 0
-1481 -1521 0
-1481 -1522 0
-1481 -1523 0
-1481 -1524 0
-1481 -1525 0
-1481 -1526 0
-1481 -1527 0
-1481 -1528 0
-1481 -1529 0
-1481 -1530 0
-1481 -1531 0
-1481 -1532 0
-1481 -1533 0
-1481 -1534 0
-1481 -1535 0
-1481 -1536 0
-1481 -1537 0
-1481 -1538 0
-1481 -1539 0
-1481 -1540 0
-1481 -1541 0
-1481 -1542 0
-1481 -1543 0
-1481 -1544 0
-1481 -1545 0
-1481 -1546 0
-1481 -1547 0
-1482 -1483 0
-1482 -1484 0
-1482 -1485 0
-1482 -1486 0
-1482 -1487 0
-1482 -1488 0
-1482 -1489 0
-1482 -1490 0
-1482 -1491 0
-1482 -1492 0
-1482 -1493 0
-1482 -1494 0
-1482 -1495 0
-1482 -1496 0
-1482 -1497 0
-1482 -1498 0
-1482 -1499 0
-1482 -1500 0
-1482 -1501 0
-1482 -1502 0
-1482 -1503 0
-1482 -1504 0
-1482 -1505 0
-1482 -1506 0
-1482 -1507 0
-1482 -1508 0
-1482 -1509 0
-1482 -1510 0
-1482 -1511 0
-1482 -1512 0
-1482 -1513 0
-1482 -1514 0
-1482 -1515 0
-1482 -1516 0
-1482 -1517 0
-1482 -1518 0
-1482 -1519 0
-1482 -1520 0
-1482 -1521 0
-1482 -1522 0
-1482 -1523 0
-1482 -1524 0
-1482 -1525 0
-1482 -1526 0
-1482 -1527 0
-1482 -1528 0
-1482 -1529 0
-1482 -1530 0
-1482 -1531 0
-1482 -1532 0
-1482 -1533 0
-1482 -1534 0
-1482 -1535 0
-1482 -1536 0
-1482 -1537 0
-1482 -1538 0
-1482 -1539 0
-1482 -1540 0
-1482 -1541 0
-1482 -1542 0
-1482 -1543 0
-1482 -1544 0
-1482 -1545 0
-1482 -1546 0
-1482 -1547 0
-1483 -1484 0
-1483 -1485 0
-1483 -1486 0
-1483 -1487 0
-1483 -1488 0
-1483 -1489 0
-1483 -1490 0
-1483 -1491 0
-1483 -1492 0
-1483 -1493 0
-1483 -1494 0
-1483 -1495 0
-1483 -1496 0
-1483 -1497 0
-1483 -1498 0
-1483 -1499 0
-1483 -1500 0
-1483 -1501 0
-1483 -1502 0
-1483 -1503 0
-1483 -1504 0
-1483 -1505 0
-1483 -1506 0
-1483 -1507 0
-1483 -1508 0
-1483 -1509 0
-1483 -1510 0
-1483 -1511 0
-1483 -1512 0
-1483 -1513 0
-1483 -1514 0
-1483 -1515 0
-1483 -1516 0
-1483 -1517 0
-1483 -1518 0
-1483 -1519 0
-1483 -1520 0
-1483 -1521 0
-1483 -1522 0
-1483 -1523 0
-1483 -1524 0
-1483 -1525 0
-1483 -1526 0
-1483 -1527 0
-1483 -1528 0
-1483 -1529 0
-1483 -1530 0
-1483 -1531 0
-1483 -1532 0
-1483 -1533 0
-1483 -1534 0
-1483 -1535 0
-1483 -1536 0
-1483 -1537 0
-1483 -1538 0
-1483 -1539 0
-1483 -1540 0
-1483 -1541 0
-1483 -1542 0
-1483 -1543 0
-1483 -1544 0
-1483 -1545 0
-1483 -1546 0
-1483 -1547 0
-1484 -1485 0
-1484 -1486 0
-1484 -1487 0
-1484 -1488 0
-1484 -1489 0
-1484 -1490 0
-1484 -1491 0
-1484 -1492 0
-1484 -1493 0
-1484 -1494 0
-1484 -1495 0
-1484 -1496 0
-1484 -1497 0
-1484 -1498 0
-1484 -1499 0
-1484 -1500 0
-1484 -1501 0
-1484 -1502 0
-1484 -1503 0
-1484 -1504 0
-1484 -1505 0
-1484 -1506 0
-1484 -1507 0
-1484 -1508 0
-1484 -1509 0
-1484 -1510 0
-1484 -1511 0
-1484 -1512 0
-1484 -1513 0
-1484 -1514 0
-1484 -1515 0
-1484 -1516 0
-1484 -1517 0
-1484 -1518 0
-1484 -1519 0
-1484 -1520 0
-1484 -1521 0
-1484 -1522 0
-1484 -1523 0
-1484 -1524 0
-1484 -1525 0
-1484 -1526 0
-1484 -1527 0
-1484 -1528 0
-1484 -1529 0
-1484 -1530 0
-1484 -1531 0
-1484 -1532 0
-1484 -1533 0
-1484 -1534 0
-1484 -1535 0
-1484 -1536 0
-1484 -1537 0
-1484 -1538 0
-1484 -1539 0
-1484 -1540 0
-1484 -1541 0
-1484 -1542 0
-1484 -1543 0
-1484 -1544 0
-1484 -1545 0
-1484 -1546 0
-1484 -1547 0
-1485 -1486 0
-1485 -1487 0
-1485 -1488 0
-1485 -1489 0
-1485 -1490 0
-1485 -1491 0
-1485 -1492 0
-1485 -1493 0
-1485 -1494 0
-1485 -1495 0
-1485 -1496 0
-1485 -1497 0
-1485 -1498 0
-1485 -1499 0
-1485 -1500 0
-1485 -1501 0
-1485 -1502 0
-1485 -1503 0
-1485 -1504 0
-1485 -1505 0
-1485 -1506 0
-1485 -1507 0
-1485 -1508 0
-1485 -1509 0
-1485 -1510 0
-1485 -1511 0
-1485 -1512 0
-1485 -1513 0
-1485 -1514 0
-1485 -1515 0
-1485 -1516 0
-1485 -1517 0
-1485 -1518 0
-1485 -1519 0
-1485 -1520 0
-1485 -1521 0
-1485 -1522 0
-1485 -1523 0
-1485 -1524 0
-1485 -1525 0
-1485 -1526 0
-1485 -1527 0
-1485 -1528 0
-1485 -1529 0
-1485 -1530 0
-1485 -1531 0
-1485 -1532 0
-1485 -1533 0
-1485 -1534 0
-1485 -1535 0
-1485 -1536 0
-1485 -1537 0
-1485 -1538 0
-1485 -1539 0
-1485 -1540 0
-1485 -1541 0
-1485 -1542 0
-1485 -1543 0
-1485 -1544 0
-1485 -1545 0
-1485 -1546 0
-1485 -1547 0
-1486 -1487 0
-1486 -1488 0
-1486 -1489 0
-1486 -1490 0
-1486 -1491 0
-1486 -1492 0
-1486 -1493 0
-1486 -1494 0
-1486 -1495 0
-1486 -1496 0
-1486 -1497 0
-1486 -1498 0
-1486 -1499 0
-1486 -1500 0
-1486 -1501 0
-1486 -1502 0
-1486 -1503 0
-1486 -1504 0
-1486 -1505 0
-1486 -1506 0
-1486 -1507 0
-1486 -1508 0
-1486 -1509 0
-1486 -1510 0
-1486 -1511 0
-1486 -1512 0
-1486 -1513 0
-1486 -1514 0
-1486 -1515 0
-1486 -1516 0
-1486 -1517 0
-1486 -1518 0
-1486 -1519 0
-1486 -1520 0
-1486 -1521 0
-1486 -1522 0
-1486 -1523 0
-1486 -1524 0
-1486 -1525 0
-1486 -1526 0
-1486 -1527 0
-1486 -1528 0
-1486 -1529 0
-1486 -1530 0
-1486 -1531 0
-1486 -1532 0
-1486 -1533 0
-1486 -1534 0
-1486 -1535 0
-1486 -1536 0
-1486 -1537 0
-1486 -1538 0
-1486 -1539 0
-1486 -1540 0
-1486 -1541 0
-1486 -1542 0
-1486 -1543 0
-1486 -1544 0
-1486 -1545 0
-1486 -1546 0
-1486 -1547 0
-1487 -1488 0
-1487 -1489 0
-1487 -1490 0
-1487 -1491 0
-1487 -1492 0
-1487 -1493 0
-1487 -1494 0
-1487 -1495 0
-1487 -1496 0
-1487 -1497 0
-1487 -1498 0
-1487 -1499 0
-1487 -1500 0
-1487 -1501 0
-1487 -1502 0
-1487 -1503 0
-1487 -1504 0
-1487 -1505 0
-1487 -1506 0
-1487 -1507 0
-1487 -1508 0
-1487 -1509 0
-1487 -1510 0
-1487 -1511 0
-1487 -1512 0
-1487 -1513 0
-1487 -1514 0
-1487 -1515 0
-1487 -1516 0
-1487 -1517 0
-1487 -1518 0
-1487 -1519 0
-1487 -1520 0
-1487 -1521 0
-1487 -1522 0
-1487 -1523 0
-1487 -1524 0
-1487 -1525 0
-1487 -1526 0
-1487 -1527 0
-1487 -1528 0
-1487 -1529 0
-1487 -1530 0
-1487 -1531 0
-1487 -1532 0
-1487 -1533 0
-1487 -1534 0
-1487 -1535 0
-1487 -1536 0
-1487 -1537 0
-1487 -1538 0
-1487 -1539 0
-1487 -1540 0
-1487 -1541 0
-1487 -1542 0
-1487 -1543 0
-1487 -1544 0
-1487 -1545 0
-1487 -1546 0
-1487 -1547 0
-1488 -1489 0
-1488 -1490 0
-1488 -1491 0
-1488 -1492 0
-1488 -1493 0
-1488 -1494 0
-1488 -1495 0
-1488 -1496 0
-1488 -1497 0
-1488 -1498 0
-1488 -1499 0
-1488 -1500 0
-1488 -1501 0
-1488 -1502 0
-1488 -1503 0
-1488 -1504 0
-1488 -1505 0
-1488 -1506 0
-1488 -1507 0
-1488 -1508 0
-1488 -1509 0
-1488 -1510 0
-1488 -1511 0
-1488 -1512 0
-1488 -1513 0
-1488 -1514 0
-1488 -1515 0
-1488 -1516 0
-1488 -1517 0
-1488 -1518 0
-1488 -1519 0
-1488 -1520 0
-1488 -1521 0
-1488 -1522 0
-1488 -1523 0
-1488 -1524 0
-1488 -1525 0
-1488 -1526 0
-1488 -1527 0
-1488 -1528 0
-1488 -1529 0
-1488 -1530 0
-1488 -1531 0
-1488 -1532 0
-1488 -1533 0
-1488 -1534 0
-1488 -1535 0
-1488 -1536 0
-1488 -1537 0
-1488 -1538 0
-1488 -1539 0
-1488 -1540 0
-1488 -1541 0
-1488 -1542 0
-1488 -1543 0
-1488 -1544 0
-1488 -1545 0
-1488 -1546 0
-1488 -1547 0
-1489 -1490 0
-1489 -1491 0
-1489 -1492 0
-1489 -1493 0
-1489 -1494 0
-1489 -1495 0
-1489 -1496 0
-1489 -1497 0
-1489 -1498 0
-1489 -1499 0
-1489 -1500 0
-1489 -1501 0
-1489 -1502 0
-1489 -1503 0
-1489 -1504 0
-1489 -1505 0
-1489 -1506 0
-1489 -1507 0
-1489 -1508 0
-1489 -1509 0
-1489 -1510 0
-1489 -1511 0
-1489 -1512 0
-1489 -1513 0
-1489 -1514 0
-1489 -1515 0
-1489 -1516 0
-1489 -1517 0
-1489 -1518 0
-1489 -1519 0
-1489 -1520 0
-1489 -1521 0
-1489 -1522 0
-1489 -1523 0
-1489 -1524 0
-1489 -1525 0
-1489 -1526 0
-1489 -1527 0
-1489 -1528 0
-1489 -1529 0
-1489 -1530 0
-1489 -1531 0
-1489 -1532 0
-1489 -1533 0
-1489 -1534 0
-1489 -1535 0
-1489 -1536 0
-1489 -1537 0
-1489 -1538 0
-1489 -1539 0
-1489 -1540 0
-1489 -1541 0
-1489 -1542 0
-1489 -1543 0
-1489 -1544 0
-1489 -1545 0
-1489 -1546 0
-1489 -1547 0
-1490 -1491 0
-1490 -1492 0
-1490 -1493 0
-1490 -1494 0
-1490 -1495 0
-1490 -1496 0
-1490 -1497 0
-1490 -1498 0
-1490 -1499 0
-1490 -1500 0
-1490 -1501 0
-1490 -1502 0
-1490 -1503 0
-1490 -1504 0
-1490 -1505 0
-1490 -1506 0
-1490 -1507 0
-1490 -1508 0
-1490 -1509 0
-1490 -1510 0
-1490 -1511 0
-1490 -1512 0
-1490 -1513 0
-1490 -1514 0
-1490 -1515 0
-1490 -1516 0
-1490 -1517 0
-1490 -1518 0
-1490 -1519 0
-1490 -1520 0
-1490 -1521 0
-1490 -1522 0
-1490 -1523 0
-1490 -1524 0
-1490 -1525 0
-1490 -1526 0
-1490 -1527 0
-1490 -1528 0
-1490 -1529 0
-1490 -1530 0
-1490 -1531 0
-1490 -1532 0
-1490 -1533 0
-1490 -1534 0
-1490 -1535 0
-1490 -1536 0
-1490 -1537 0
-1490 -1538 0
-1490 -1539 0
-1490 -1540 0
-1490 -1541 0
-1490 -1542 0
-1490 -1543 0
-1490 -1544 0
-1490 -1545 0
-1490 -1546 0
-1490 -1547 0
-1491 -1492 0
-1491 -1493 0
-1491 -1494 0
-1491 -1495 0
-1491 -1496 0
-1491 -1497 0
-1491 -1498 0
-1491 -1499 0
-1491 -1500 0
-1491 -1501 0
-1491 -1502 0
-1491 -1503 0
-1491 -1504 0
-1491 -1505 0
-1491 -1506 0
-1491 -1507 0
-1491 -1508 0
-1491 -1509 0
-1491 -1510 0
-1491 -1511 0
-1491 -1512 0
-1491 -1513 0
-1491 -1514 0
-1491 -1515 0
-1491 -1516 0
-1491 -1517 0
-1491 -1518 0
-1491 -1519 0
-1491 -1520 0
-1491 -1521 0
-1491 -1522 0
-1491 -1523 0
-1491 -1524 0
-1491 -1525 0
-1491 -1526 0
-1491 -1527 0
-1491 -1528 0
-1491 -1529 0
-1491 -1530 0
-1491 -1531 0
-1491 -1532 0
-1491 -1533 0
-1491 -1534 0
-1491 -1535 0
-1491 -1536 0
-1491 -1537 0
-1491 -1538 0
-1491 -1539 0
-1491 -1540 0
-1491 -1541 0
-1491 -1542 0
-1491 -1543 0
-1491 -1544 0
-1491 -1545 0
-1491 -1546 0
-1491 -1547 0
-1492 -1493 0
-1492 -1494 0
-1492 -1495 0
-1492 -1496 0
-1492 -1497 0
-1492 -1498 0
-1492 -1499 0
-1492 -1500 0
-1492 -1501 0
-1492 -1502 0
-1492 -1503 0
-1492 -1504 0
-1492 -1505 0
-1492 -1506 0
-1492 -1507 0
-1492 -1508 0
-1492 -1509 0
-1492 -1510 0
-1492 -1511 0
-1492 -1512 0
-1492 -1513 0
-1492 -1514 0
-1492 -1515 0
-1492 -1516 0
-1492 -1517 0
-1492 -1518 0
-1492 -1519 0
-1492 -1520 0
-1492 -1521 0
-1492 -1522 0
-1492 -1523 0
-1492 -1524 0
-1492 -1525 0
-1492 -1526 0
-1492 -1527 0
-1492 -1528 0
-1492 -1529 0
-1492 -1530 0
-1492 -1531 0
-1492 -1532 0
-1492 -1533 0
-1492 -1534 0
-1492 -1535 0
-1492 -1536 0
-1492 -1537 0
-1492 -1538 0
-1492 -1539 0
-1492 -1540 0
-1492 -1541 0
-1492 -1542 0
-1492 -1543 0
-1492 -1544 0
-1492 -1545 0
-1492 -1546 0
-1492 -1547 0
-1493 -1494 0
-1493 -1495 0
-1493 -1496 0
-1493 -1497 0
-1493 -1498 0
-1493 -1499 0
-1493 -1500 0
-1493 -1501 0
-1493 -1502 0
-1493 -1503 0
-1493 -1504 0
-1493 -1505 0
-1493 -1506 0
-1493 -1507 0
-1493 -1508 0
-1493 -1509 0
-1493 -1510 0
-1493 -1511 0
-1493 -1512 0
-1493 -1513 0
-1493 -1514 0
-1493 -1515 0
-1493 -1516 0
-1493 -1517 0
-1493 -1518 0
-1493 -1519 0
-1493 -1520 0
-1493 -1521 0
-1493 -1522 0
-1493 -1523 0
-1493 -1524 0
-1493 -1525 0
-1493 -1526 0
-1493 -1527 0
-1493 -1528 0
-1493 -1529 0
-1493 -1530 0
-1493 -1531 0
-1493 -1532 0
-1493 -1533 0
-1493 -1534 0
-1493 -1535 0
-1493 -1536 0
-1493 -1537 0
-1493 -1538 0
-1493 -1539 0
-1493 -1540 0
-1493 -1541 0
-1493 -1542 0
-1493 -1543 0
-1493 -1544 0
-1493 -1545 0
-1493 -1546 0
-1493 -1547 0
-1494 -1495 0
-1494 -1496 0
-1494 -1497 0
-1494 -1498 0
-1494 -1499 0
-1494 -1500 0
-1494 -1501 0
-1494 -1502 0
-1494 -1503 0
-1494 -1504 0
-1494 -1505 0
-1494 -1506 0
-1494 -1507 0
-1494 -1508 0
-1494 -1509 0
-1494 -1510 0
-1494 -1511 0
-1494 -1512 0
-1494 -1513 0
-1494 -1514 0
-1494 -1515 0
-1494 -1516 0
-1494 -1517 0
-1494 -1518 0
-1494 -1519 0
-1494 -1520 0
-1494 -1521 0
-1494 -1522 0
-1494 -1523 0
-1494 -1524 0
-1494 -1525 0
-1494 -1526 0
-1494 -1527 0
-1494 -1528 0
-1494 -1529 0
-1494 -1530 0
-1494 -1531 0
-1494 -1532 0
-1494 -1533 0
-1494 -1534 0
-1494 -1535 0
-1494 -1536 0
-1494 -1537 0
-1494 -1538 0
-1494 -1539 0
-1494 -1540 0
-1494 -1541 0
-1494 -1542 0
-1494 -1543 0
-1494 -1544 0
-1494 -1545 0
-1494 -1546 0
-1494 -1547 0
-1495 -1496 0
-1495 -1497 0
-1495 -1498 0
-1495 -1499 0
-1495 -1500 0
-1495 -1501 0
-1495 -1502 0
-1495 -1503 0
-1495 -1504 0
-1495 -1505 0
-1495 -1506 0
-1495 -1507 0
-1495 -1508 0
-1495 -1509 0
-1495 -1510 0
-1495 -1511 0
-1495 -1512 0
-1495 -1513 0
-1495 -1514 0
-1495 -1515 0
-1495 -1516 0
-1495 -1517 0
-1495 -1518 0
-1495 -1519 0
-1495 -1520 0
-1495 -1521 0
-1495 -1522 0
-1495 -1523 0
-1495 -1524 0
-1495 -1525 0
-1495 -1526 0
-1495 -1527 0
-1495 -1528 0
-1495 -1529 0
-1495 -1530 0
-1495 -1531 0
-1495 -1532 0
-1495 -1533 0
-1495 -1534 0
-1495 -1535 0
-1495 -1536 0
-1495 -1537 0
-1495 -1538 0
-1495 -1539 0
-1495 -1540 0
-1495 -1541 0
-1495 -1542 0
-1495 -1543 0
-1495 -1544 0
-1495 -1545 0
-1495 -1546 0
-1495 -1547 0
-1496 -1497 0
-1496 -1498 0
-1496 -1499 0
-1496 -1500 0
-1496 -1501 0
-1496 -1502 0
-1496 -1503 0
-1496 -1504 0
-1496 -1505 0
-1496 -1506 0
-1496 -1507 0
-1496 -1508 0
-1496 -1509 0
-1496 -1510 0
-1496 -1511 0
-1496 -1512 0
-1496 -1513 0
-1496 -1514 0
-1496 -1515 0
-1496 -1516 0
-1496 -1517 0
-1496 -1518 0
-1496 -1519 0
-1496 -1520 0
-1496 -1521 0
-1496 -1522 0
-1496 -1523 0
-1496 -1524 0
-1496 -1525 0
-1496 -1526 0
-1496 -1527 0
-1496 -1528 0
-1496 -1529 0
-1496 -1530 0
-1496 -1531 0
-1496 -1532 0
-1496 -1533 0
-1496 -1534 0
-1496 -1535 0
-1496 -1536 0
-1496 -1537 0
-1496 -1538 0
-1496 -1539 0
-1496 -1540 0
-1496 -1541 0
-1496 -1542 0
-1496 -1543 0
-1496 -1544 0
-1496 -1545 0
-1496 -1546 0
-1496 -1547 0
-1497 -1498 0
-1497 -1499 0
-1497 -1500 0
-1497 -1501 0
-1497 -1502 0
-1497 -1503 0
-1497 -1504 0
-1497 -1505 0
-1497 -1506 0
-1497 -1507 0
-1497 -1508 0
-1497 -1509 0
-1497 -1510 0
-1497 -1511 0
-1497 -1512 0
-1497 -1513 0
-1497 -1514 0
-1497 -1515 0
-1497 -1516 0
-1497 -1517 0
-1497 -1518 0
-1497 -1519 0
-1497 -1520 0
-1497 -1521 0
-1497 -1522 0
-1497 -1523 0
-1497 -1524 0
-1497 -1525 0
-1497 -1526 0
-1497 -1527 0
-1497 -1528 0
-1497 -1529 0
-1497 -1530 0
-1497 -1531 0
-1497 -1532 0
-1497 -1533 0
-1497 -1534 0
-1497 -1535 0
-1497 -1536 0
-1497 -1537 0
-1497 -1538 0
-1497 -1539 0
-1497 -1540 0
-1497 -1541 0
-1497 -1542 0
-1497 -1543 0
-1497 -1544 0
-1497 -1545 0
-1497 -1546 0
-1497 -1547 0
-1498 -1499 0
-1498 -1500 0
-1498 -1501 0
-1498 -1502 0
-1498 -1503 0
-1498 -1504 0
-1498 -1505 0
-1498 -1506 0
-1498 -1507 0
-1498 -1508 0
-1498 -1509 0
-1498 -1510 0
-1498 -1511 0
-1498 -1512 0
-1498 -1513 0
-1498 -1514 0
-1498 -1515 0
-1498 -1516 0
-1498 -1517 0
-1498 -1518 0
-1498 -1519 0
-1498 -1520 0
-1498 -1521 0
-1498 -1522 0
-1498 -1523 0
-1498 -1524 0
-1498 -1525 0
-1498 -1526 0
-1498 -1527 0
-1498 -1528 0
-1498 -1529 0
-1498 -1530 0
-1498 -1531 0
-1498 -1532 0
-1498 -1533 0
-1498 -1534 0
-1498 -1535 0
-1498 -1536 0
-1498 -1537 0
-1498 -1538 0
-1498 -1539 0
-1498 -1540 0
-1498 -1541 0
-1498 -1542 0
-1498 -1543 0
-1498 -1544 0
-1498 -1545 0
-1498 -1546 0
-1498 -1547 0
-1499 -1500 0
-1499 -1501 0
-1499 -1502 0
-1499 -1503 0
-1499 -1504 0
-1499 -1505 0
-1499 -1506 0
-1499 -1507 0
-1499 -1508 0
-1499 -1509 0
-1499 -1510 0
-1499 -1511 0
-1499 -1512 0
-1499 -1513 0
-1499 -1514 0
-1499 -1515 0
-1499 -1516 0
-1499 -1517 0
-1499 -1518 0
-1499 -1519 0
-1499 -1520 0
-1499 -1521 0
-1499 -1522 0
-1499 -1523 0
-1499 -1524 0
-1499 -1525 0
-1499 -1526 0
-1499 -1527 0
-1499 -1528 0
-1499 -1529 0
-1499 -1530 0
-1499 -1531 0
-1499 -1532 0
-1499 -1533 0
-1499 -1534 0
-1499 -1535 0
-1499 -1536 0
-1499 -1537 0
-1499 -1538 0
-1499 -1539 0
-1499 -1540 0
-1499 -1541 0
-1499 -1542 0
-1499 -1543 0
-1499 -1544 0
-1499 -1545 0
-1499 -1546 0
-1499 -1547 0
-1500 -1501 0
-1500 -1502 0
-1500 -1503 0
-1500 -1504 0
-1500 -1505 0
-1500 -1506 0
-1500 -1507 0
-1500 -1508 0
-1500 -1509 0
-1500 -1510 0
-1500 -1511 0
-1500 -1512 0
-1500 -1513 0
-1500 -1514 0
-1500 -1515 0
-1500 -1516 0
-1500 -1517 0
-1500 -1518 0
-1500 -1519 0
-1500 -1520 0
-1500 -1521 0
-1500 -1522 0
-1500 -1523 0
-1500 -1524 0
-1500 -1525 0
-1500 -1526 0
-1500 -1527 0
-1500 -1528 0
-1500 -1529 0
-1500 -1530 0
-1500 -1531 0
-1500 -1532 0
-1500 -1533 0
-1500 -1534 0
-1500 -1535 0
-1500 -1536 0
-1500 -1537 0
-1500 -1538 0
-1500 -1539 0
-1500 -1540 0
-1500 -1541 0
-1500 -1542 0
-1500 -1543 0
-1500 -1544 0
-1500 -1545 0
-1500 -1546 0
-1500 -1547 0
-1501 -1502 0
-1501 -1503 0
-1501 -1504 0
-1501 -1505 0
-1501 -1506 0
-1501 -1507 0
-1501 -1508 0
-1501 -1509 0
-1501 -1510 0
-1501 -1511 0
-1501 -1512 0
-1501 -1513 0
-1501 -1514 0
-1501 -1515 0
-1501 -1516 0
-1501 -1517 0
-1501 -1518 0
-1501 -1519 0
-1501 -1520 0
-1501 -1521 0
-1501 -1522 0
-1501 -1523 0
-1501 -1524 0
-1501 -1525 0
-1501 -1526 0
-1501 -1527 0
-1501 -1528 0
-1501 -1529 0
-1501 -1530 0
-1501 -1531 0
-1501 -1532 0
-1501 -1533 0
-1501 -1534 0
-1501 -1535 0
-1501 -1536 0
-1501 -1537 0
-1501 -1538 0
-1501 -1539 0
-1501 -1540 0
-1501 -1541 0
-1501 -1542 0
-1501 -1543 0
-1501 -1544 0
-1501 -1545 0
-1501 -1546 0
-1501 -1547 0
-1502 -1503 0
-1502 -1504 0
-1502 -1505 0
-1502 -1506 0
-1502 -1507 0
-1502 -1508 0
-1502 -1509 0
-1502 -1510 0
-1502 -1511 0
-1502 -1512 0
-1502 -1513 0
-1502 -1514 0
-1502 -1515 0
-1502 -1516 0
-1502 -1517 0
-1502 -1518 0
-1502 -1519 0
-1502 -1520 0
-1502 -1521 0
-1502 -1522 0
-1502 -1523 0
-1502 -1524 0
-1502 -1525 0
-1502 -1526 0
-1502 -1527 0
-1502 -1528 0
-1502 -1529 0
-1502 -1530 0
-1502 -1531 0
-1502 -1532 0
-1502 -1533 0
-1502 -1534 0
-1502 -1535 0
-1502 -1536 0
-1502 -1537 0
-1502 -1538 0
-1502 -1539 0
-1502 -1540 0
-1502 -1541 0
-1502 -1542 0
-1502 -1543 0
-1502 -1544 0
-1502 -1545 0
-1502 -1546 0
-1502 -1547 0
-1503 -1504 0
-1503 -1505 0
-1503 -1506 0
-1503 -1507 0
-1503 -1508 0
-1503 -1509 0
-1503 -1510 0
-1503 -1511 0
-1503 -1512 0
-1503 -1513 0
-1503 -1514 0
-1503 -1515 0
-1503 -1516 0
-1503 -1517 0
-1503 -1518 0
-1503 -1519 0
-1503 -1520 0
-1503 -1521 0
-1503 -1522 0
-1503 -1523 0
-1503 -1524 0
-1503 -1525 0
-1503 -1526 0
-1503 -1527 0
-1503 -1528 0
-1503 -1529 0
-1503 -1530 0
-1503 -1531 0
-1503 -1532 0
-1503 -1533 0
-1503 -1534 0
-1503 -1535 0
-1503 -1536 0
-1503 -1537 0
-1503 -1538 0
-1503 -1539 0
-1503 -1540 0
-1503 -1541 0
-1503 -1542 0
-1503 -1543 0
-1503 -1544 0
-1503 -1545 0
-1503 -1546 0
-1503 -1547 0
-1504 -1505 0
-1504 -1506 0
-1504 -1507 0
-1504 -1508 0
-1504 -1509 0
-1504 -1510 0
-1504 -1511 0
-1504 -1512 0
-1504 -1513 0
-1504 -1514 0
-1504 -1515 0
-1504 -1516 0
-1504 -1517 0
-1504 -1518 0
-1504 -1519 0
-1504 -1520 0
-1504 -1521 0
-1504 -1522 0
-1504 -1523 0
-1504 -1524 0
-1504 -1525 0
-1504 -1526 0
-1504 -1527 0
-1504 -1528 0
-1504 -1529 0
-1504 -1530 0
-1504 -1531 0
-1504 -1532 0
-1504 -1533 0
-1504 -1534 0
-1504 -1535 0
-1504 -1536 0
-1504 -1537 0
-1504 -1538 0
-1504 -1539 0
-1504 -1540 0
-1504 -1541 0
-1504 -1542 0
-1504 -1543 0
-1504 -1544 0
-1504 -1545 0
-1504 -1546 0
-1504 -1547 0
-1505 -1506 0
-1505 -1507 0
-1505 -1508 0
-1505 -1509 0
-1505 -1510 0
-1505 -1511 0
-1505 -1512 0
-1505 -1513 0
-1505 -1514 0
-1505 -1515 0
-1505 -1516 0
-1505 -1517 0
-1505 -1518 0
-1505 -1519 0
-1505 -1520 0
-1505 -1521 0
-1505 -1522 0
-1505 -1523 0
-1505 -1524 0
-1505 -1525 0
-1505 -1526 0
-1505 -1527 0
-1505 -1528 0
-1505 -1529 0
-1505 -1530 0
-1505 -1531 0
-1505 -1532 0
-1505 -1533 0
-1505 -1534 0
-1505 -1535 0
-1505 -1536 0
-1505 -1537 0
-1505 -1538 0
-1505 -1539 0
-1505 -1540 0
-1505 -1541 0
-1505 -1542 0
-1505 -1543 0
-1505 -1544 0
-1505 -1545 0
-1505 -1546 0
-1505 -1547 0
-1506 -1507 0
-1506 -1508 0
-1506 -1509 0
-1506 -1510 0
-1506 -1511 0
-1506 -1512 0
-1506 -1513 0
-1506 -1514 0
-1506 -1515 0
-1506 -1516 0
-1506 -1517 0
-1506 -1518 0
-1506 -1519 0
-1506 -1520 0
-1506 -1521 0
-1506 -1522 0
-1506 -1523 0
-1506 -1524 0
-1506 -1525 0
-1506 -1526 0
-1506 -1527 0
-1506 -1528 0
-1506 -1529 0
-1506 -1530 0
-1506 -1531 0
-1506 -1532 0
-1506 -1533 0
-1506 -1534 0
-1506 -1535 0
-1506 -1536 0
-1506 -1537 0
-1506 -1538 0
-1506 -1539 0
-1506 -1540 0
-1506 -1541 0
-1506 -1542 0
-1506 -1543 0
-1506 -1544 0
-1506 -1545 0
-1506 -1546 0
-1506 -1547 0
-1507 -1508 0
-1507 -1509 0
-1507 -1510 0
-1507 -1511 0
-1507 -1512 0
-1507 -1513 0
-1507 -1514 0
-1507 -1515 0
-1507 -1516 0
-1507 -1517 0
-1507 -1518 0
-1507 -1519 0
-1507 -1520 0
-1507 -1521 0
-1507 -1522 0
-1507 -1523 0
-1507 -1524 0
-1507 -1525 0
-1507 -1526 0
-1507 -1527 0
-1507 -1528 0
-1507 -1529 0
-1507 -1530 0
-1507 -1531 0
-1507 -1532 0
-1507 -1533 0
-1507 -1534 0
-1507 -1535 0
-1507 -1536 0
-1507 -1537 0
-1507 -1538 0
-1507 -1539 0
-1507 -1540 0
-1507 -1541 0
-1507 -1542 0
-1507 -1543 0
-1507 -1544 0
-1507 -1545 0
-1507 -1546 0
-1507 -1547 0
-1508 -1509 0
-1508 -1510 0
-1508 -1511 0
-1508 -1512 0
-1508 -1513 0
-1508 -1514 0
-1508 -1515 0
-1508 -1516 0
-1508 -1517 0
-1508 -1518 0
-1508 -1519 0
-1508 -1520 0
-1508 -1521 0
-1508 -1522 0
-1508 -1523 0
-1508 -1524 0
-1508 -1525 0
-1508 -1526 0
-1508 -1527 0
-1508 -1528 0
-1508 -1529 0
-1508 -1530 0
-1508 -1531 0
-1508 -1532 0
-1508 -1533 0
-1508 -1534 0
-1508 -1535 0
-1508 -1536 0
-1508 -1537 0
-1508 -1538 0
-1508 -1539 0
-1508 -1540 0
-1508 -1541 0
-1508 -1542 0
-1508 -1543 0
-1508 -1544 0
-1508 -1545 0
-1508 -1546 0
-1508 -1547 0
-1509 -1510 0
-1509 -1511 0
-1509 -1512 0
-1509 -1513 0
-1509 -1514 0
-1509 -1515 0
-1509 -1516 0
-1509 -1517 0
-1509 -1518 0
-1509 -1519 0
-1509 -1520 0
-1509 -1521 0
-1509 -1522 0
-1509 -1523 0
-1509 -1524 0
-1509 -1525 0
-1509 -1526 0
-1509 -1527 0
-1509 -1528 0
-1509 -1529 0
-1509 -1530 0
-1509 -1531 0
-1509 -1532 0
-1509 -1533 0
-1509 -1534 0
-1509 -1535 0
-1509 -1536 0
-1509 -1537 0
-1509 -1538 0
-1509 -1539 0
-1509 -1540 0
-1509 -1541 0
-1509 -1542 0
-1509 -1543 0
-1509 -1544 0
-1509 -1545 0
-1509 -1546 0
-1509 -1547 0
-1510 -1511 0
-1510 -1512 0
-1510 -1513 0
-1510 -1514 0
-1510 -1515 0
-1510 -1516 0
-1510 -1517 0
-1510 -1518 0
-1510 -1519 0
-1510 -1520 0
-1510 -1521 0
-1510 -1522 0
-1510 -1523 0
-1510 -1524 0
-1510 -1525 0
-1510 -1526 0
-1510 -1527 0
-1510 -1528 0
-1510 -1529 0
-1510 -1530 0
-1510 -1531 0
-1510 -1532 0
-1510 -1533 0
-1510 -1534 0
-1510 -1535 0
-1510 -1536 0
-1510 -1537 0
-1510 -1538 0
-1510 -1539 0
-1510 -1540 0
-1510 -1541 0
-1510 -1542 0
-1510 -1543 0
-1510 -1544 0
-1510 -1545 0
-1510 -1546 0
-1510 -1547 0
-1511 -1512 0
-1511 -1513 0
-1511 -1514 0
-1511 -1515 0
-1511 -1516 0
-1511 -1517 0
-1511 -1518 0
-1511 -1519 0
-1511 -1520 0
-1511 -1521 0
-1511 -1522 0
-1511 -1523 0
-1511 -1524 0
-1511 -1525 0
-1511 -1526 0
-1511 -1527 0
-1511 -1528 0
-1511 -1529 0
-1511 -1530 0
-1511 -1531 0
-1511 -1532 0
-1511 -1533 0
-1511 -1534 0
-1511 -1535 0
-1511 -1536 0
-1511 -1537 0
-1511 -1538 0
-1511 -1539 0
-1511 -1540 0
-1511 -1541 0
-1511 -1542 0
-1511 -1543 0
-1511 -1544 0
-1511 -1545 0
-1511 -1546 0
-1511 -1547 0
-1512 -1513 0
-1512 -1514 0
-1512 -1515 0
-1512 -1516 0
-1512 -1517 0
-1512 -1518 0
-1512 -1519 0
-1512 -1520 0
-1512 -1521 0
-1512 -1522 0
-1512 -1523 0
-1512 -1524 0
-1512 -1525 0
-1512 -1526 0
-1512 -1527 0
-1512 -1528 0
-1512 -1529 0
-1512 -1530 0
-1512 -1531 0
-1512 -1532 0
-1512 -1533 0
-1512 -1534 0
-1512 -1535 0
-1512 -1536 0
-1512 -1537 0
-1512 -1538 0
-1512 -1539 0
-1512 -1540 0
-1512 -1541 0
-1512 -1542 0
-1512 -1543 0
-1512 -1544 0
-1512 -1545 0
-1512 -1546 0
-1512 -1547 0
-1513 -1514 0
-1513 -1515 0
-1513 -1516 0
-1513 -1517 0
-1513 -1518 0
-1513 -1519 0
-1513 -1520 0
-1513 -1521 0
-1513 -1522 0
-1513 -1523 0
-1513 -1524 0
-1513 -1525 0
-1513 -1526 0
-1513 -1527 0
-1513 -1528 0
-1513 -1529 0
-1513 -1530 0
-1513 -1531 0
-1513 -1532 0
-1513 -1533 0
-1513 -1534 0
-1513 -1535 0
-1513 -1536 0
-1513 -1537 0
-1513 -1538 0
-1513 -1539 0
-1513 -1540 0
-1513 -1541 0
-1513 -1542 0
-1513 -1543 0
-1513 -1544 0
-1513 -1545 0
-1513 -1546 0
-1513 -1547 0
-1514 -1515 0
-1514 -1516 0
-1514 -1517 0
-1514 -1518 0
-1514 -1519 0
-1514 -1520 0
-1514 -1521 0
-1514 -1522 0
-1514 -1523 0
-1514 -1524 0
-1514 -1525 0
-1514 -1526 0
-1514 -1527 0
-1514 -1528 0
-1514 -1529 0
-1514 -1530 0
-1514 -1531 0
-1514 -1532 0
-1514 -1533 0
-1514 -1534 0
-1514 -1535 0
-1514 -1536 0
-1514 -1537 0
-1514 -1538 0
-1514 -1539 0
-1514 -1540 0
-1514 -1541 0
-1514 -1542 0
-1514 -1543 0
-1514 -1544 0
-1514 -1545 0
-1514 -1546 0
-1514 -1547 0
-1515 -1516 0
-1515 -1517 0
-1515 -1518 0
-1515 -1519 0
-1515 -1520 0
-1515 -1521 0
-1515 -1522 0
-1515 -1523 0
-1515 -1524 0
-1515 -1525 0
-1515 -1526 0
-1515 -1527 0
-1515 -1528 0
-1515 -1529 0
-1515 -1530 0
-1515 -1531 0
-1515 -1532 0
-1515 -1533 0
-1515 -1534 0
-1515 -1535 0
-1515 -1536 0
-1515 -1537 0
-1515 -1538 0
-1515 -1539 0
-1515 -1540 0
-1515 -1541 0
-1515 -1542 0
-1515 -1543 0
-1515 -1544 0
-1515 -1545 0
-1515 -1546 0
-1515 -1547 0
-1516 -1517 0
-1516 -1518 0
-1516 -1519 0
-1516 -1520 0
-1516 -1521 0
-1516 -1522 0
-1516 -1523 0
-1516 -1524 0
-1516 -1525 0
-1516 -1526 0
-1516 -1527 0
-1516 -1528 0
-1516 -1529 0
-1516 -1530 0
-1516 -1531 0
-1516 -1532 0
-1516 -1533 0
-1516 -1534 0
-1516 -1535 0
-1516 -1536 0
-1516 -1537 0
-1516 -1538 0
-1516 -1539 0
-1516 -1540 0
-1516 -1541 0
-1516 -1542 0
-1516 -1543 0
-1516 -1544 0
-1516 -1545 0
-1516 -1546 0
-1516 -1547 0
-1517 -1518 0
-1517 -1519 0
-1517 -1520 0
-1517 -1521 0
-1517 -1522 0
-1517 -1523 0
-1517 -1524 0
-1517 -1525 0
-1517 -1526 0
-1517 -1527 0
-1517 -1528 0
-1517 -1529 0
-1517 -1530 0
-1517 -1531 0
-1517 -1532 0
-1517 -1533 0
-1517 -1534 0
-1517 -1535 0
-1517 -1536 0
-1517 -1537 0
-1517 -1538 0
-1517 -1539 0
-1517 -1540 0
-1517 -1541 0
-1517 -1542 0
-1517 -1543 0
-1517 -1544 0
-1517 -1545 0
-1517 -1546 0
-1517 -1547 0
-1518 -1519 0
-1518 -1520 0
-1518 -1521 0
-1518 -1522 0
-1518 -1523 0
-1518 -1524 0
-1518 -1525 0
-1518 -1526 0
-1518 -1527 0
-1518 -1528 0
-1518 -1529 0
-1518 -1530 0
-1518 -1531 0
-1518 -1532 0
-1518 -1533 0
-1518 -1534 0
-1518 -1535 0
-1518 -1536 0
-1518 -1537 0
-1518 -1538 0
-1518 -1539 0
-1518 -1540 0
-1518 -1541 0
-1518 -1542 0
-1518 -1543 0
-1518 -1544 0
-1518 -1545 0
-1518 -1546 0
-1518 -1547 0
-1519 -1520 0
-1519 -1521 0
-1519 -1522 0
-1519 -1523 0
-1519 -1524 0
-1519 -1525 0
-1519 -1526 0
-1519 -1527 0
-1519 -1528 0
-1519 -1529 0
-1519 -1530 0
-1519 -1531 0
-1519 -1532 0
-1519 -1533 0
-1519 -1534 0
-1519 -1535 0
-1519 -1536 0
-1519 -1537 0
-1519 -1538 0
-1519 -1539 0
-1519 -1540 0
-1519 -1541 0
-1519 -1542 0
-1519 -1543 0
-1519 -1544 0
-1519 -1545 0
-1519 -1546 0
-1519 -1547 0
-1520 -1521 0
-1520 -1522 0
-1520 -1523 0
-1520 -1524 0
-1520 -1525 0
-1520 -1526 0
-1520 -1527 0
-1520 -1528 0
-1520 -1529 0
-1520 -1530 0
-1520 -1531 0
-1520 -1532 0
-1520 -1533 0
-1520 -1534 0
-1520 -1535 0
-1520 -1536 0
-1520 -1537 0
-1520 -1538 0
-1520 -1539 0
-1520 -1540 0
-1520 -1541 0
-1520 -1542 0
-1520 -1543 0
-1520 -1544 0
-1520 -1545 0
-1520 -1546 0
-1520 -1547 0
-1521 -1522 0
-1521 -1523 0
-1521 -1524 0
-1521 -1525 0
-1521 -1526 0
-1521 -1527 0
-1521 -1528 0
-1521 -1529 0
-1521 -1530 0
-1521 -1531 0
-1521 -1532 0
-1521 -1533 0
-1521 -1534 0
-1521 -1535 0
-1521 -1536 0
-1521 -1537 0
-1521 -1538 0
-1521 -1539 0
-1521 -1540 0
-1521 -1541 0
-1521 -1542 0
-1521 -1543 0
-1521 -1544 0
-1521 -1545 0
-1521 -1546 0
-1521 -1547 0
-1522 -1523 0
-1522 -1524 0
-1522 -1525 0
-1522 -1526 0
-1522 -1527 0
-1522 -1528 0
-1522 -1529 0
-1522 -1530 0
-1522 -1531 0
-1522 -1532 0
-1522 -1533 0
-1522 -1534 0
-1522 -1535 0
-1522 -1536 0
-1522 -1537 0
-1522 -1538 0
-1522 -1539 0
-1522 -1540 0
-1522 -1541 0
-1522 -1542 0
-1522 -1543 0
-1522 -1544 0
-1522 -1545 0
-1522 -1546 0
-1522 -1547 0
-1523 -1524 0
-1523 -1525 0
-1523 -1526 0
-1523 -1527 0
-1523 -1528 0
-1523 -1529 0
-1523 -1530 0
-1523 -1531 0
-1523 -1532 0
-1523 -1533 0
-1523 -1534 0
-1523 -1535 0
-1523 -1536 0
-1523 -1537 0
-1523 -1538 0
-1523 -1539 0
-1523 -1540 0
-1523 -1541 0
-1523 -1542 0
-1523 -1543 0
-1523 -1544 0
-1523 -1545 0
-1523 -1546 0
-1523 -1547 0
-1524 -1525 0
-1524 -1526 0
-1524 -1527 0
-1524 -1528 0
-1524 -1529 0
-1524 -1530 0
-1524 -1531 0
-1524 -1532 0
-1524 -1533 0
-1524 -1534 0
-1524 -1535 0
-1524 -1536 0
-1524 -1537 0
-1524 -1538 0
-1524 -1539 0
-1524 -1540 0
-1524 -1541 0
-1524 -1542 0
-1524 -1543 0
-1524 -1544 0
-1524 -1545 0
-1524 -1546 0
-1524 -1547 0
-1525 -1526 0
-1525 -1527 0
-1525 -1528 0
-1525 -1529 0
-1525 -1530 0
-1525 -1531 0
-1525 -1532 0
-1525 -1533 0
-1525 -1534 0
-1525 -1535 0
-1525 -1536 0
-1525 -1537 0
-1525 -1538 0
-1525 -1539 0
-1525 -1540 0
-1525 -1541 0
-1525 -1542 0
-1525 -1543 0
-1525 -1544 0
-1525 -1545 0
-1525 -1546 0
-1525 -1547 0
-1526 -1527 0
-1526 -1528 0
-1526 -1529 0
-1526 -1530 0
-1526 -1531 0
-1526 -1532 0
-1526 -1533 0
-1526 -1534 0
-1526 -1535 0
-1526 -1536 0
-1526 -1537 0
-1526 -1538 0
-1526 -1539 0
-1526 -1540 0
-1526 -1541 0
-1526 -1542 0
-1526 -1543 0
-1526 -1544 0
-1526 -1545 0
-1526 -1546 0
-1526 -1547 0
-1527 -1528 0
-1527 -1529 0
-1527 -1530 0
-1527 -1531 0
-1527 -1532 0
-1527 -1533 0
-1527 -1534 0
-1527 -1535 0
-1527 -1536 0
-1527 -1537 0
-1527 -1538 0
-1527 -1539 0
-1527 -1540 0
-1527 -1541 0
-1527 -1542 0
-1527 -1543 0
-1527 -1544 0
-1527 -1545 0
-1527 -1546 0
-1527 -1547 0
-1528 -1529 0
-1528 -1530 0
-1528 -1531 0
-1528 -1532 0
-1528 -1533 0
-1528 -1534 0
-1528 -1535 0
-1528 -1536 0
-1528 -1537 0
-1528 -1538 0
-1528 -1539 0
-1528 -1540 0
-1528 -1541 0
-1528 -1542 0
-1528 -1543 0
-1528 -1544 0
-1528 -1545 0
-1528 -1546 0
-1528 -1547 0
-1529 -1530 0
-1529 -1531 0
-1529 -1532 0
-1529 -1533 0
-1529 -1534 0
-1529 -1535 0
-1529 -1536 0
-1529 -1537 0
-1529 -1538 0
-1529 -1539 0
-1529 -1540 0
-1529 -1541 0
-1529 -1542 0
-1529 -1543 0
-1529 -1544 0
-1529 -1545 0
-1529 -1546 0
-1529 -1547 0
-1530 -1531 0
-1530 -1532 0
-1530 -1533 0
-1530 -1534 0
-1530 -1535 0
-1530 -1536 0
-1530 -1537 0
-1530 -1538 0
-1530 -1539 0
-1530 -1540 0
-1530 -1541 0
-1530 -1542 0
-1530 -1543 0
-1530 -1544 0
-1530 -1545 0
-1530 -1546 0
-1530 -1547 0
-1531 -1532 0
-1531 -1533 0
-1531 -1534 0
-1531 -1535 0
-1531 -1536 0
-1531 -1537 0
-1531 -1538 0
-1531 -1539 0
-1531 -1540 0
-1531 -1541 0
-1531 -1542 0
-1531 -1543 0
-1531 -1544 0
-1531 -1545 0
-1531 -1546 0
-1531 -1547 0
-1532 -1533 0
-1532 -1534 0
-1532 -1535 0
-1532 -1536 0
-1532 -1537 0
-1532 -1538 0
-1532 -1539 0
-1532 -1540 0
-1532 -1541 0
-1532 -1542 0
-1532 -1543 0
-1532 -1544 0
-1532 -1545 0
-1532 -1546 0
-1532 -1547 0
-1533 -1534 0
-1533 -1535 0
-1533 -1536 0
-1533 -1537 0
-1533 -1538 0
-1533 -1539 0
-1533 -1540 0
-1533 -1541 0
-1533 -1542 0
-1533 -1543 0
-1533 -1544 0
-1533 -1545 0
-1533 -1546 0
-1533 -1547 0
-1534 -1535 0
-1534 -1536 0
-1534 -1537 0
-1534 -1538 0
-1534 -1539 0
-1534 -1540 0
-1534 -1541 0
-1534 -1542 0
-1534 -1543 0
-1534 -1544 0
-1534 -1545 0
-1534 -1546 0
-1534 -1547 0
-1535 -1536 0
-1535 -1537 0
-1535 -1538 0
-1535 -1539 0
-1535 -1540 0
-1535 -1541 0
-1535 -1542 0
-1535 -1543 0
-1535 -1544 0
-1535 -1545 0
-1535 -1546 0
-1535 -1547 0
-1536 -1537 0
-1536 -1538 0
-1536 -1539 0
-1536 -1540 0
-1536 -1541 0
-1536 -1542 0
-1536 -1543 0
-1536 -1544 0
-1536 -1545 0
-1536 -1546 0
-1536 -1547 0
-1537 -1538 0
-1537 -1539 0
-1537 -1540 0
-1537 -1541 0
-1537 -1542 0
-1537 -1543 0
-1537 -1544 0
-1537 -1545 0
-1537 -1546 0
-1537 -1547 0
-1538 -1539 0
-1538 -1540 0
-1538 -1541 0
-1538 -1542 0
-1538 -1543 0
-1538 -1544 0
-1538 -1545 0
-1538 -1546 0
-1538 -1547 0
-1539 -1540 0
-1539 -1541 0
-1539 -1542 0
-1539 -1543 0
-1539 -1544 0
-1539 -1545 0
-1539 -1546 0
-1539 -1547 0
-1540 -1541 0
-1540 -1542 0
-1540 -1543 0
-1540 -1544 0
-1540 -1545 0
-1540 -1546 0
-1540 -1547 0
-1541 -1542 0
-1541 -1543 0
-1541 -1544 0
-1541 -1545 0
-1541 -1546 0
-1541 -1547 0
-1542 -1543 0
-1542 -1544 0
-1542 -1545 0
-1542 -1546 0
-1542 -1547 0
-1543 -1544 0
-1543 -1545 0
-1543 -1546 0
-1543 -1547 0
-1544 -1545 0
-1544 -1546 0
-1544 -1547 0
-1545 -1546 0
-1545 -1547 0
-1546 -1547 0
-746 895 1464 1465 1466 1467 1468 1469 1470 1471 1472 1473 1474 1475 1476 1477 1478 1479 1480 1481 1482 1483 1484 1485 1486 1487 0
746 -895 1464 1465 1466 1467 1468 1469 1470 1471 1472 1473 1474 1475 1476 1477 1478 1479 1480 1481 1482 1483 1484 1485 1486 1487 0
-747 896 1464 1465 1466 1467 1468 1469 1470 1471 1472 1473 1474 1475 1476 1477 1478 1479 1480 1481 1482 1483 1484 1485 1486 1487 0
747 -896 1464 1465 1466 1467 1468 1469 1470 1471 1472 1473 1474 1475 1476 1477 1478 1479 1480 1481 1482 1483 1484 1485 1486 1487 0
-748 897 1464 1465 1466 1467 1468 1469 1470 1471 1472 1473 1474 1475 1476 1477 1478 1479 1480 1481 1482 1483 1484 1485 1486 1487 0
748 -897 1464 1465 1466 1467 1468 1469 1470 1471 1472 1473 1474 1475 1476 1477 1478 1479 1480 1481 1482 1483 1484 1485 1486 1487 0
-749 898 1464 1465 1466 1467 1468 1469 1470 1471 1472 1473 1474 1475 1476 1477 1478 1479 1480 1481 1482 1483 1484 1485 1486 1487 0
749 -898 1464 1465 1466 1467 1468 1469 1470 1471 1472 1473 1474 1475 1476 1477 1478 1479 1480 1481 1482 1483 1484 1485 1486 1487 0
-750 899 1464 1465 1466 1467 1468 1469 1470 1471 1472 1473 1474 1475 1476 1477 1478 1479 1480 1481 1482 1483 1484 1485 1486 1487 0
750 -899 1464 1465 1466 1467 1468 1469 1470 1471 1472 1473 1474 1475 1476 1477 1478 1479 1480 1481 1482 1483 1484 1485 1486 1487 0
-751 900 1464 1465 1466 1467 1468 1469 1470 1471 1472 1473 1474 1475 1476 1477 1478 1479 1480 1481 1482 1483 1484 1485 1486 1487 0
751 -900 1464 1465 1466 1467 1468 1469 1470 1471 1472 1473 1474 1475 1476 1477 1478 1479 1480 1481 1482 1483 1484 1485 1486 1487 0
-752 901 1464 1465 1466 1467 1468 1469 1470 1471 1472 1473 1474 1475 1476 1477 1478 1479 1480 1481 1482 1483 1484 1485 1486 1487 0
752 -901 1464 1465 1466 1467 1468 1469 1470 1471 1472 1473 1474 1475 1476 1477 1478 1479 1480 1481 1482 1483 1484 1485 1486 1487 0
-753 902 1464 1465 1466 1467 1468 1469 1470 1471 1472 1473 1474 1475 1476 1477 1478 1479 1480 1481 1482 1483 1484 1485 1486 1487 0
753 -902 1464 1465 1466 1467 1468 1469 1470 1471 1472 1473 1474 1475 1476 1477 1478 1479 1480 1481 1482 1483 1484 1485 1486 1487 0
-754 903 1464 1465 1466 1467 1468 1469 1470 1471 1472 1473 1474 1475 1476 1477 1478 1479 1480 1481 1482 1483 1484 1485 1486 1487 0
754 -903 1464 1465 1466 1467 1468 1469 1470 1471 1472 1473 1474 1475 1476 1477 1478 1479 1480 1481 1482 1483 1484 1485 1486 1487 0
-755 904 1464 1465 1466 1467 1468 1469 1470 1471 1472 1473 1474 1475 1476 1477 1478 1479 1480 1481 1482 1483 1484 1485 1486 1487 0
755 -904 1464 1465 1466 1467 1468 1469 1470 1471 1472 1473 1474 1475 1476 1477 1478 1479 1480 1481 1482 1483 1484 1485 1486 1487 0
-805 954 1488 1489 1490 1491 1492 1493 1494 1495 1496 1497 1498 1499 1500 1501 1502 1503 1504 1505 1506 1507 1508 1509 1510 1511 0
805 -954 1488 1489 1490 1491 1492 1493 1494 1495 1496 1497 1498 1499 1500 1501 1502 1503 1504 1505 1506 1507 1508 1509 1510 1511 0
-806 955 1488 1489 1490 1491 1492 1493 1494 1495 1496 1497 1498 1499 1500 1501 1502 1503 1504 1505 1506 1507 1508 1509 1510 1511 0
806 -955 1488 1489 1490 1491 1492 1493 1494 1495 1496 1497 1498 1499 1500 1501 1502 1503 1504 1505 1506 1507 1508 1509 1510 1511 0
-807 956 1488 1489 1490 1491 1492 1493 1494 1495 1496 1497 1498 1499 1500 1501 1502 1503 1504 1505 1506 1507 1508 1509 1510 1511 0
807 -956 1488 1489 1490 1491 1492 1493 1494 1495 1496 1497 1498 1499 1500 1501 1502 1503 1504 1505 1506 1507 1508 1509 1510 1511 0
-808 957 1488 1489 1490 1491 1492 1493 1494 1495 1496 1497 1498 1499 1500 1501 1502 1503 1504 1505 1506 1507 1508 1509 1510 1511 0
808 -957 1488 1489 1490 1491 1492 1493 1494 1495 1496 1497 1498 1499 1500 1501 1502 1503 1504 1505 1506 1507 1508 1509 1510 1511 0
-809 958 1488 1489 1490 1491 1492 1493 1494 1495 1496 1497 1498 1499 1500 1501 1502 1503 1504 1505 1506 1507 1508 1509 1510 1511 0
809 -958 1488 1489 1490 1491 1492 1493 1494 1495 1496 1497 1498 1499 1500 1501 1502 1503 1504 1505 1506 1507 1508 1509 1510 1511 0
-810 959 1488 1489 1490 1491 1492 1493 1494 1495 1496 1497 1498 1499 1500 1501 1502 1503 1504 1505 1506 1507 1508 1509 1510 1511 0
810 -959 1488 1489 1490 1491 1492 1493 1494 1495 1496 1497 1498 1499 1500 1501 1502 1503 1504 1505 1506 1507 1508 1509 1510 1511 0
-811 960 1488 1489 1490 1491 1492 1493 1494 1495 1496 1497 1498 1499 1500 1501 1502 1503 1504 1505 1506 1507 1508 1509 1510 1511 0
811 -960 1488 1489 1490 1491 1492 1493 1494 1495 1496 1497 1498 1499 1500 1501 1502 1503 1504 1505 1506 1507 1508 1509 1510 1511 0
-812 961 1488 1489 1490 1491 1492 1493 1494 1495 1496 1497 1498 1499 1500 1501 1502 1503 1504 1505 1506 1507 1508 1509 1510 1511 0
812 -961 1488 1489 1490 1491 1492 1493 1494 1495 1496 1497 1498 1499 1500 1501 1502 1503 1504 1505 1506 1507 1508 1509 1510 1511 0
-813 962 1488 1489 1490 1491 1492 1493 1494 1495 1496 1497 1498 1499 1500 1501 1502 1503 1504 1505 1506 1507 1508 1509 1510 1511 0
813 -962 1488 1489 1490 1491 1492 1493 1494 1495 1496 1497 1498 1499 1500 1501 1502 1503 1504 1505 1506 1507 1508 1509 1510 1511 0
-814 963 1488 1489 1490 1491 1492 1493 1494 1495 1496 1497 1498 1499 1500 1501 1502 1503 1504 1505 1506 1507 1508 1509 1510 1511 0
814 -963 1488 1489 1490 1491 1492 1493 1494 1495 1496 1497 1498 1499 1500 1501 1502 1503 1504 1505 1506 1507 1508 1509 1510 1511 0
-840 989 1512 1513 1514 1515 1516 1517 1518 1519 1520 1521 1522 1523 1524 1525 1526 1527 1528 1529 1530 1531 0
840 -989 1512 1513 1514 1515 1516 1517 1518 1519 1520 1521 1522 1523 1524 1525 1526 1527 1528 1529 1530 1531 0
-841 990 1512 1513 1514 1515 1516 1517 1518 1519 1520 1521 1522 1523 1524 1525 1526 1527 1528 1529 1530 1531 0
841 -990 1512 1513 1514 1515 1516 1517 1518 1519 1520 1521 1522 1523 1524 1525 1526 1527 1528 1529 1530 1531 0
-842 991 1512 1513 1514 1515 1516 1517 1518 1519 1520 1521 1522 1523 1524 1525 1526 1527 1528 1529 1530 1531 0
842 -991 1512 1513 1514 1515 1516 1517 1518 1519 1520 1521 1522 1523 1524 1525 1526 1527 1528 1529 1530 1531 0
-843 992 1512 1513 1514 1515 1516 1517 1518 1519 1520 1521 1522 1523 1524 1525 1526 1527 1528 1529 1530 1531 0
843 -992 1512 1513 1514 1515 1516 1517 1518 1519 1520 1521 1522 1523 1524 1525 1526 1527 1528 1529 1530 1531 0
-844 993 1512 1513 1514 1515 1516 1517 1518 1519 1520 1521 1522 1523 1524 1525 1526 1527 1528 1529 1530 1531 0
844 -993 1512 1513 1514 1515 1516 1517 1518 1519 1520 1521 1522 1523 1524 1525 1526 1527 1528 1529 1530 1531 0
-845 994 1512 1513 1514 1515 1516 1517 1518 1519 1520 1521 1522 1523 1524 1525 1526 1527 1528 1529 1530 1531 0
845 -994 1512 1513 1514 1515 1516 1517 1518 1519 1520 1521 1522 1523 1524 1525 1526 1527 1528 1529 1530 1531 0
-846 995 1512 1513 1514 1515 1516 1517 1518 1519 1520 1521 1522 1523 1524 1525 1526 1527 1528 1529 1530 1531 0
846 -995 1512 1513 1514 1515 1516 1517 1518 1519 1520 1521 1522 1523 1524 1525 1526 1527 1528 1529 1530 1531 0
-847 996 1512 1513 1514 1515 1516 1517 1518 1519 1520 1521 1522 1523 1524 1525 1526 1527 1528 1529 1530 1531 0
847 -996 1512 1513 1514 1515 1516 1517 1518 1519 1520 1521 1522 1523 1524 1525 1526 1527 1528 1529 1530 1531 0
-848 997 1512 1513 1514 1515 1516 1517 1518 1519 1520 1521 1522 1523 1524 1525 1526 1527 1528 1529 1530 1531 0
848 -997 1512 1513 1514 1515 1516 1517 1518 1519 1520 1521 1522 1523 1524 1525 1526 1527 1528 1529 1530 1531 0
-870 1019 1532 1533 1534 1535 1536 1537 1538 1539 1540 1541 1542 1543 1544 1545 1546 1547 0
870 -1019 1532 1533 1534 1535 1536 1537 1538 1539 1540 1541 1542 1543 1544 1545 1546 1547 0
-871 1020 1532 1533 1534 1535 1536 1537 1538 1539 1540 1541 1542 1543 1544 1545 1546 1547 0
871 -1020 1532 1533 1534 1535 1536 1537 1538 1539 1540 1541 1542 1543 1544 1545 1546 1547 0
-872 1021 1532 1533 1534 1535 1536 1537 1538 1539 1540 1541 1542 1543 1544 1545 1546 1547 0
872 -1021 1532 1533 1534 1535 1536 1537 1538 1539 1540 1541 1542 1543 1544 1545 1546 1547 0
-873 1022 1532 1533 1534 1535 1536 1537 1538 1539 1540 1541 1542 1543 1544 1545 1546 1547 0
873 -1022 1532 1533 1534 1535 1536 1537 1538 1539 1540 1541 1542 1543 1544 1545 1546 1547 0
-874 1023 1532 1533 1534 1535 1536 1537 1538 1539 1540 1541 1542 1543 1544 1545 1546 1547 0
874 -1023 1532 1533 1534 1535 1536 1537 1538 1539 1540 1541 1542 1543 1544 1545 1546 1547 0
-875 1024 1532 1533 1534 1535 1536 1537 1538 1539 1540 1541 1542 1543 1544 1545 1546 1547 0
875 -1024 1532 1533 1534 1535 1536 1537 1538 1539 1540 1541 1542 1543 1544 1545 1546 1547 0
-876 1025 1532 1533 1534 1535 1536 1537 1538 1539 1540 1541 1542 1543 1544 1545 1546 1547 0
876 -1025 1532 1533 1534 1535 1536 1537 1538 1539 1540 1541 1542 1543 1544 1545 1546 1547 0
-877 1026 1532 1533 1534 1535 1536 1537 1538 1539 1540 1541 1542 1543 1544 1545 1546 1547 0
877 -1026 1532 1533 1534 1535 1536 1537 1538 1539 1540 1541 1542 1543 1544 1545 1546 1547 0
