p cnf 1314 29332
1 2 3 4 5 6 0
-1 -2 0
-1 -3 0
-1 -4 0
-1 -5 0
-1 -6 0
-2 -3 0
-2 -4 0
-2 -5 0
-2 -6 0
-3 -4 0
-3 -5 0
-3 -6 0
-4 -5 0
-4 -6 0
-5 -6 0
7 8 9 10 0
-7 -8 0
-7 -9 0
-7 -10 0
-8 -9 0
-8 -10 0
-9 -10 0
-11 1 0
-11 7 0
-1 -7 11 0
-11 15 12 13 14 0
-11 -15 -12 0
-11 -15 -13 0
-11 -15 -14 0
-16 1 0
-16 8 0
-1 -8 16 0
-16 17 0
-16 15 13 14 0
-16 -15 -13 0
-16 -15 -14 0
-18 1 0
-18 9 0
-1 -9 18 0
-18 12 0
-18 15 14 0
-18 -15 -14 0
-19 1 0
-19 10 0
-1 -10 19 0
-19 13 0
-19 15 0
-20 2 0
-20 7 0
-2 -7 20 0
-20 15 21 22 23 0
-20 -15 -21 0
-20 -15 -22 0
-20 -15 -23 0
-24 2 0
-24 8 0
-2 -8 24 0
-24 25 0
-24 15 22 23 0
-24 -15 -22 0
-24 -15 -23 0
-26 2 0
-26 9 0
-2 -9 26 0
-26 21 0
-26 15 23 0
-26 -15 -23 0
-27 2 0
-27 10 0
-2 -10 27 0
-27 22 0
-27 15 0
-28 3 0
-28 7 0
-3 -7 28 0
-28 15 29 30 31 0
-28 -15 -29 0
-28 -15 -30 0
-28 -15 -31 0
-32 3 0
-32 8 0
-3 -8 32 0
-32 33 0
-32 15 30 31 0
-32 -15 -30 0
-32 -15 -31 0
-34 3 0
-34 9 0
-3 -9 34 0
-34 29 0
-34 15 31 0
-34 -15 -31 0
-35 3 0
-35 10 0
-3 -10 35 0
-35 30 0
-35 15 0
-36 4 0
-36 7 0
-4 -7 36 0
-36 15 37 38 39 0
-36 -15 -37 0
-36 -15 -38 0
-36 -15 -39 0
-40 4 0
-40 8 0
-4 -8 40 0
-40 41 0
-40 15 38 39 0
-40 -15 -38 0
-40 -15 -39 0
-42 4 0
-42 9 0
-4 -9 42 0
-42 37 0
-42 15 39 0
-42 -15 -39 0
-43 4 0
-43 10 0
-4 -10 43 0
-43 38 0
-43 15 0
-44 5 0
-44 7 0
-5 -7 44 0
-44 15 45 46 47 0
-44 -15 -45 0
-44 -15 -46 0
-44 -15 -47 0
-48 5 0
-48 8 0
-5 -8 48 0
-48 49 0
-48 15 46 47 0
-48 -15 -46 0
-48 -15 -47 0
-50 5 0
-50 9 0
-5 -9 50 0
-50 45 0
-50 15 47 0
-50 -15 -47 0
-51 5 0
-51 10 0
-5 -10 51 0
-51 46 0
-51 15 0
-52 6 0
-52 7 0
-6 -7 52 0
-52 15 53 54 55 0
-52 -15 -53 0
-52 -15 -54 0
-52 -15 -55 0
-56 6 0
-56 8 0
-6 -8 56 0
-56 57 0
-56 15 54 55 0
-56 -15 -54 0
-56 -15 -55 0
-58 6 0
-58 9 0
-6 -9 58 0
-58 53 0
-58 15 55 0
-58 -15 -55 0
-59 6 0
-59 10 0
-6 -10 59 0
-59 54 0
-59 15 0
60 61 62 63 64 65 0
-60 -61 0
-60 -62 0
-60 -63 0
-60 -64 0
-60 -65 0
-61 -62 0
-61 -63 0
-61 -64 0
-61 -65 0
-62 -63 0
-62 -64 0
-62 -65 0
-63 -64 0
-63 -65 0
-64 -65 0
66 67 68 69 0
-66 -67 0
-66 -68 0
-66 -69 0
-67 -68 0
-67 -69 0
-68 -69 0
-70 60 0
-70 66 0
-60 -66 70 0
-70 71 12 13 14 0
-70 -71 -12 0
-70 -71 -13 0
-70 -71 -14 0
-72 60 0
-72 67 0
-60 -67 72 0
-72 17 0
-72 71 13 14 0
-72 -71 -13 0
-72 -71 -14 0
-73 60 0
-73 68 0
-60 -68 73 0
-73 12 0
-73 71 14 0
-73 -71 -14 0
-74 60 0
-74 69 0
-60 -69 74 0
-74 13 0
-74 71 0
-75 61 0
-75 66 0
-61 -66 75 0
-75 71 21 22 23 0
-75 -71 -21 0
-75 -71 -22 0
-75 -71 -23 0
-76 61 0
-76 67 0
-61 -67 76 0
-76 25 0
-76 71 22 23 0
-76 -71 -22 0
-76 -71 -23 0
-77 61 0
-77 68 0
-61 -68 77 0
-77 21 0
-77 71 23 0
-77 -71 -23 0
-78 61 0
-78 69 0
-61 -69 78 0
-78 22 0
-78 71 0
-79 62 0
-79 66 0
-62 -66 79 0
-79 71 29 30 31 0
-79 -71 -29 0
-79 -71 -30 0
-79 -71 -31 0
-80 62 0
-80 67 0
-62 -67 80 0
-80 33 0
-80 71 30 31 0
-80 -71 -30 0
-80 -71 -31 0
-81 62 0
-81 68 0
-62 -68 81 0
-81 29 0
-81 71 31 0
-81 -71 -31 0
-82 62 0
-82 69 0
-62 -69 82 0
-82 30 0
-82 71 0
-83 63 0
-83 66 0
-63 -66 83 0
-83 71 37 38 39 0
-83 -71 -37 0
-83 -71 -38 0
-83 -71 -39 0
-84 63 0
-84 67 0
-63 -67 84 0
-84 41 0
-84 71 38 39 0
-84 -71 -38 0
-84 -71 -39 0
-85 63 0
-85 68 0
-63 -68 85 0
-85 37 0
-85 71 39 0
-85 -71 -39 0
-86 63 0
-86 69 0
-63 -69 86 0
-86 38 0
-86 71 0
-87 64 0
-87 66 0
-64 -66 87 0
-87 71 45 46 47 0
-87 -71 -45 0
-87 -71 -46 0
-87 -71 -47 0
-88 64 0
-88 67 0
-64 -67 88 0
-88 49 0
-88 71 46 47 0
-88 -71 -46 0
-88 -71 -47 0
-89 64 0
-89 68 0
-64 -68 89 0
-89 45 0
-89 71 47 0
-89 -71 -47 0
-90 64 0
-90 69 0
-64 -69 90 0
-90 46 0
-90 71 0
-91 65 0
-91 66 0
-65 -66 91 0
-91 71 53 54 55 0
-91 -71 -53 0
-91 -71 -54 0
-91 -71 -55 0
-92 65 0
-92 67 0
-65 -67 92 0
-92 57 0
-92 71 54 55 0
-92 -71 -54 0
-92 -71 -55 0
-93 65 0
-93 68 0
-65 -68 93 0
-93 53 0
-93 71 55 0
-93 -71 -55 0
-94 65 0
-94 69 0
-65 -69 94 0
-94 54 0
-94 71 0
95 96 97 98 99 0
-95 -96 0
-95 -97 0
-95 -98 0
-95 -99 0
-96 -97 0
-96 -98 0
-96 -99 0
-97 -98 0
-97 -99 0
-98 -99 0
100 101 102 103 0
-100 -101 0
-100 -102 0
-100 -103 0
-101 -102 0
-101 -103 0
-102 -103 0
-104 95 0
-104 100 0
-95 -100 104 0
-104 105 12 13 14 21 22 23 0
-104 -105 -12 0
-104 -105 -13 0
-104 -105 -14 0
-104 -105 -21 0
-104 -105 -22 0
-104 -105 -23 0
-106 95 0
-106 101 0
-95 -101 106 0
-106 17 25 0
-106 105 13 14 22 23 0
-106 -105 -13 0
-106 -105 -14 0
-106 -105 -22 0
-106 -105 -23 0
-107 95 0
-107 102 0
-95 -102 107 0
-107 12 21 0
-107 105 14 23 0
-107 -105 -14 0
-107 -105 -23 0
-108 95 0
-108 103 0
-95 -103 108 0
-108 13 22 0
-108 105 0
-109 96 0
-109 100 0
-96 -100 109 0
-109 105 21 22 23 29 30 31 0
-109 -105 -21 0
-109 -105 -22 0
-109 -105 -23 0
-109 -105 -29 0
-109 -105 -30 0
-109 -105 -31 0
-110 96 0
-110 101 0
-96 -101 110 0
-110 25 33 0
-110 105 22 23 30 31 0
-110 -105 -22 0
-110 -105 -23 0
-110 -105 -30 0
-110 -105 -31 0
-111 96 0
-111 102 0
-96 -102 111 0
-111 21 29 0
-111 105 23 31 0
-111 -105 -23 0
-111 -105 -31 0
-112 96 0
-112 103 0
-96 -103 112 0
-112 22 30 0
-112 105 0
-113 97 0
-113 100 0
-97 -100 113 0
-113 105 29 30 31 37 38 39 0
-113 -105 -29 0
-113 -105 -30 0
-113 -105 -31 0
-113 -105 -37 0
-113 -105 -38 0
-113 -105 -39 0
-114 97 0
-114 101 0
-97 -101 114 0
-114 33 41 0
-114 105 30 31 38 39 0
-114 -105 -30 0
-114 -105 -31 0
-114 -105 -38 0
-114 -105 -39 0
-115 97 0
-115 102 0
-97 -102 115 0
-115 29 37 0
-115 105 31 39 0
-115 -105 -31 0
-115 -105 -39 0
-116 97 0
-116 103 0
-97 -103 116 0
-116 30 38 0
-116 105 0
-117 98 0
-117 100 0
-98 -100 117 0
-117 105 37 38 39 45 46 47 0
-117 -105 -37 0
-117 -105 -38 0
-117 -105 -39 0
-117 -105 -45 0
-117 -105 -46 0
-117 -105 -47 0
-118 98 0
-118 101 0
-98 -101 118 0
-118 41 49 0
-118 105 38 39 46 47 0
-118 -105 -38 0
-118 -105 -39 0
-118 -105 -46 0
-118 -105 -47 0
-119 98 0
-119 102 0
-98 -102 119 0
-119 37 45 0
-119 105 39 47 0
-119 -105 -39 0
-119 -105 -47 0
-120 98 0
-120 103 0
-98 -103 120 0
-120 38 46 0
-120 105 0
-121 99 0
-121 100 0
-99 -100 121 0
-121 105 45 46 47 53 54 55 0
-121 -105 -45 0
-121 -105 -46 0
-121 -105 -47 0
-121 -105 -53 0
-121 -105 -54 0
-121 -105 -55 0
-122 99 0
-122 101 0
-99 -101 122 0
-122 49 57 0
-122 105 46 47 54 55 0
-122 -105 -46 0
-122 -105 -47 0
-122 -105 -54 0
-122 -105 -55 0
-123 99 0
-123 102 0
-99 -102 123 0
-123 45 53 0
-123 105 47 55 0
-123 -105 -47 0
-123 -105 -55 0
-124 99 0
-124 103 0
-99 -103 124 0
-124 46 54 0
-124 105 0
125 126 127 128 0
-125 -126 0
-125 -127 0
-125 -128 0
-126 -127 0
-126 -128 0
-127 -128 0
129 130 131 132 0
-129 -130 0
-129 -131 0
-129 -132 0
-130 -131 0
-130 -132 0
-131 -132 0
-133 125 0
-133 129 0
-125 -129 133 0
-133 134 12 13 14 21 22 23 29 30 31 0
-133 -134 -12 0
-133 -134 -13 0
-133 -134 -14 0
-133 -134 -21 0
-133 -134 -22 0
-133 -134 -23 0
-133 -134 -29 0
-133 -134 -30 0
-133 -134 -31 0
-135 125 0
-135 130 0
-125 -130 135 0
-135 17 25 0
-135 17 33 0
-135 25 33 0
-135 134 13 14 22 23 30 31 0
-135 -134 -13 0
-135 -134 -14 0
-135 -134 -22 0
-135 -134 -23 0
-135 -134 -30 0
-135 -134 -31 0
-136 125 0
-136 131 0
-125 -131 136 0
-136 12 21 0
-136 12 29 0
-136 21 29 0
-136 134 14 23 31 0
-136 -134 -14 0
-136 -134 -23 0
-136 -134 -31 0
-137 125 0
-137 132 0
-125 -132 137 0
-137 13 22 0
-137 13 30 0
-137 22 30 0
-137 134 0
-138 126 0
-138 129 0
-126 -129 138 0
-138 134 21 22 23 29 30 31 37 38 39 0
-138 -134 -21 0
-138 -134 -22 0
-138 -134 -23 0
-138 -134 -29 0
-138 -134 -30 0
-138 -134 -31 0
-138 -134 -37 0
-138 -134 -38 0
-138 -134 -39 0
-139 126 0
-139 130 0
-126 -130 139 0
-139 25 33 0
-139 25 41 0
-139 33 41 0
-139 134 22 23 30 31 38 39 0
-139 -134 -22 0
-139 -134 -23 0
-139 -134 -30 0
-139 -134 -31 0
-139 -134 -38 0
-139 -134 -39 0
-140 126 0
-140 131 0
-126 -131 140 0
-140 21 29 0
-140 21 37 0
-140 29 37 0
-140 134 23 31 39 0
-140 -134 -23 0
-140 -134 -31 0
-140 -134 -39 0
-141 126 0
-141 132 0
-126 -132 141 0
-141 22 30 0
-141 22 38 0
-141 30 38 0
-141 134 0
-142 127 0
-142 129 0
-127 -129 142 0
-142 134 29 30 31 37 38 39 45 46 47 0
-142 -134 -29 0
-142 -134 -30 0
-142 -134 -31 0
-142 -134 -37 0
-142 -134 -38 0
-142 -134 -39 0
-142 -134 -45 0
-142 -134 -46 0
-142 -134 -47 0
-143 127 0
-143 130 0
-127 -130 143 0
-143 33 41 0
-143 33 49 0
-143 41 49 0
-143 134 30 31 38 39 46 47 0
-143 -134 -30 0
-143 -134 -31 0
-143 -134 -38 0
-143 -134 -39 0
-143 -134 -46 0
-143 -134 -47 0
-144 127 0
-144 131 0
-127 -131 144 0
-144 29 37 0
-144 29 45 0
-144 37 45 0
-144 134 31 39 47 0
-144 -134 -31 0
-144 -134 -39 0
-144 -134 -47 0
-145 127 0
-145 132 0
-127 -132 145 0
-145 30 38 0
-145 30 46 0
-145 38 46 0
-145 134 0
-146 128 0
-146 129 0
-128 -129 146 0
-146 134 37 38 39 45 46 47 53 54 55 0
-146 -134 -37 0
-146 -134 -38 0
-146 -134 -39 0
-146 -134 -45 0
-146 -134 -46 0
-146 -134 -47 0
-146 -134 -53 0
-146 -134 -54 0
-146 -134 -55 0
-147 128 0
-147 130 0
-128 -130 147 0
-147 41 49 0
-147 41 57 0
-147 49 57 0
-147 134 38 39 46 47 54 55 0
-147 -134 -38 0
-147 -134 -39 0
-147 -134 -46 0
-147 -134 -47 0
-147 -134 -54 0
-147 -134 -55 0
-148 128 0
-148 131 0
-128 -131 148 0
-148 37 45 0
-148 37 53 0
-148 45 53 0
-148 134 39 47 55 0
-148 -134 -39 0
-148 -134 -47 0
-148 -134 -55 0
-149 128 0
-149 132 0
-128 -132 149 0
-149 38 46 0
-149 38 54 0
-149 46 54 0
-149 134 0
-17 11 70 104 133 0
-11 17 0
-70 17 0
-104 17 0
-133 17 0
-11 -70 0
-11 -104 0
-11 -133 0
-70 -104 0
-70 -133 0
-104 -133 0
-12 16 72 106 135 0
-16 12 0
-72 12 0
-106 12 0
-135 12 0
-16 -72 0
-16 -106 0
-16 -135 0
-72 -106 0
-72 -135 0
-106 -135 0
-13 18 73 107 136 0
-18 13 0
-73 13 0
-107 13 0
-136 13 0
-18 -73 0
-18 -107 0
-18 -136 0
-73 -107 0
-73 -136 0
-107 -136 0
-14 19 74 108 137 0
-19 14 0
-74 14 0
-108 14 0
-137 14 0
-19 -74 0
-19 -108 0
-19 -137 0
-74 -108 0
-74 -137 0
-108 -137 0
-25 20 75 104 109 133 138 0
-20 25 0
-75 25 0
-104 25 0
-109 25 0
-133 25 0
-138 25 0
-20 -75 0
-20 -104 0
-20 -109 0
-20 -133 0
-20 -138 0
-75 -104 0
-75 -109 0
-75 -133 0
-75 -138 0
-104 -109 0
-104 -133 0
-104 -138 0
-109 -133 0
-109 -138 0
-133 -138 0
-21 24 76 106 110 135 139 0
-24 21 0
-76 21 0
-106 21 0
-110 21 0
-135 21 0
-139 21 0
-24 -76 0
-24 -106 0
-24 -110 0
-24 -135 0
-24 -139 0
-76 -106 0
-76 -110 0
-76 -135 0
-76 -139 0
-106 -110 0
-106 -135 0
-106 -139 0
-110 -135 0
-110 -139 0
-135 -139 0
-22 26 77 107 111 136 140 0
-26 22 0
-77 22 0
-107 22 0
-111 22 0
-136 22 0
-140 22 0
-26 -77 0
-26 -107 0
-26 -111 0
-26 -136 0
-26 -140 0
-77 -107 0
-77 -111 0
-77 -136 0
-77 -140 0
-107 -111 0
-107 -136 0
-107 -140 0
-111 -136 0
-111 -140 0
-136 -140 0
-23 27 78 108 112 137 141 0
-27 23 0
-78 23 0
-108 23 0
-112 23 0
-137 23 0
-141 23 0
-27 -78 0
-27 -108 0
-27 -112 0
-27 -137 0
-27 -141 0
-78 -108 0
-78 -112 0
-78 -137 0
-78 -141 0
-108 -112 0
-108 -137 0
-108 -141 0
-112 -137 0
-112 -141 0
-137 -141 0
-33 28 79 109 113 133 138 142 0
-28 33 0
-79 33 0
-109 33 0
-113 33 0
-133 33 0
-138 33 0
-142 33 0
-28 -79 0
-28 -109 0
-28 -113 0
-28 -133 0
-28 -138 0
-28 -142 0
-79 -109 0
-79 -113 0
-79 -133 0
-79 -138 0
-79 -142 0
-109 -113 0
-109 -133 0
-109 -138 0
-109 -142 0
-113 -133 0
-113 -138 0
-113 -142 0
-133 -138 0
-133 -142 0
-138 -142 0
-29 32 80 110 114 135 139 143 0
-32 29 0
-80 29 0
-110 29 0
-114 29 0
-135 29 0
-139 29 0
-143 29 0
-32 -80 0
-32 -110 0
-32 -114 0
-32 -135 0
-32 -139 0
-32 -143 0
-80 -110 0
-80 -114 0
-80 -135 0
-80 -139 0
-80 -143 0
-110 -114 0
-110 -135 0
-110 -139 0
-110 -143 0
-114 -135 0
-114 -139 0
-114 -143 0
-135 -139 0
-135 -143 0
-139 -143 0
-30 34 81 111 115 136 140 144 0
-34 30 0
-81 30 0
-111 30 0
-115 30 0
-136 30 0
-140 30 0
-144 30 0
-34 -81 0
-34 -111 0
-34 -115 0
-34 -136 0
-34 -140 0
-34 -144 0
-81 -111 0
-81 -115 0
-81 -136 0
-81 -140 0
-81 -144 0
-111 -115 0
-111 -136 0
-111 -140 0
-111 -144 0
-115 -136 0
-115 -140 0
-115 -144 0
-136 -140 0
-136 -144 0
-140 -144 0
-31 35 82 112 116 137 141 145 0
-35 31 0
-82 31 0
-112 31 0
-116 31 0
-137 31 0
-141 31 0
-145 31 0
-35 -82 0
-35 -112 0
-35 -116 0
-35 -137 0
-35 -141 0
-35 -145 0
-82 -112 0
-82 -116 0
-82 -137 0
-82 -141 0
-82 -145 0
-112 -116 0
-112 -137 0
-112 -141 0
-112 -145 0
-116 -137 0
-116 -141 0
-116 -145 0
-137 -141 0
-137 -145 0
-141 -145 0
-41 36 83 113 117 138 142 146 0
-36 41 0
-83 41 0
-113 41 0
-117 41 0
-138 41 0
-142 41 0
-146 41 0
-36 -83 0
-36 -113 0
-36 -117 0
-36 -138 0
-36 -142 0
-36 -146 0
-83 -113 0
-83 -117 0
-83 -138 0
-83 -142 0
-83 -146 0
-113 -117 0
-113 -138 0
-113 -142 0
-113 -146 0
-117 -138 0
-117 -142 0
-117 -146 0
-138 -142 0
-138 -146 0
-142 -146 0
-37 40 84 114 118 139 143 147 0
-40 37 0
-84 37 0
-114 37 0
-118 37 0
-139 37 0
-143 37 0
-147 37 0
-40 -84 0
-40 -114 0
-40 -118 0
-40 -139 0
-40 -143 0
-40 -147 0
-84 -114 0
-84 -118 0
-84 -139 0
-84 -143 0
-84 -147 0
-114 -118 0
-114 -139 0
-114 -143 0
-114 -147 0
-118 -139 0
-118 -143 0
-118 -147 0
-139 -143 0
-139 -147 0
-143 -147 0
-38 42 85 115 119 140 144 148 0
-42 38 0
-85 38 0
-115 38 0
-119 38 0
-140 38 0
-144 38 0
-148 38 0
-42 -85 0
-42 -115 0
-42 -119 0
-42 -140 0
-42 -144 0
-42 -148 0
-85 -115 0
-85 -119 0
-85 -140 0
-85 -144 0
-85 -148 0
-115 -119 0
-115 -140 0
-115 -144 0
-115 -148 0
-119 -140 0
-119 -144 0
-119 -148 0
-140 -144 0
-140 -148 0
-144 -148 0
-39 43 86 116 120 141 145 149 0
-43 39 0
-86 39 0
-116 39 0
-120 39 0
-141 39 0
-145 39 0
-149 39 0
-43 -86 0
-43 -116 0
-43 -120 0
-43 -141 0
-43 -145 0
-43 -149 0
-86 -116 0
-86 -120 0
-86 -141 0
-86 -145 0
-86 -149 0
-116 -120 0
-116 -141 0
-116 -145 0
-116 -149 0
-120 -141 0
-120 -145 0
-120 -149 0
-141 -145 0
-141 -149 0
-145 -149 0
-49 44 87 117 121 142 146 0
-44 49 0
-87 49 0
-117 49 0
-121 49 0
-142 49 0
-146 49 0
-44 -87 0
-44 -117 0
-44 -121 0
-44 -142 0
-44 -146 0
-87 -117 0
-87 -121 0
-87 -142 0
-87 -146 0
-117 -121 0
-117 -142 0
-117 -146 0
-121 -142 0
-121 -146 0
-142 -146 0
-45 48 88 118 122 143 147 0
-48 45 0
-88 45 0
-118 45 0
-122 45 0
-143 45 0
-147 45 0
-48 -88 0
-48 -118 0
-48 -122 0
-48 -143 0
-48 -147 0
-88 -118 0
-88 -122 0
-88 -143 0
-88 -147 0
-118 -122 0
-118 -143 0
-118 -147 0
-122 -143 0
-122 -147 0
-143 -147 0
-46 50 89 119 123 144 148 0
-50 46 0
-89 46 0
-119 46 0
-123 46 0
-144 46 0
-148 46 0
-50 -89 0
-50 -119 0
-50 -123 0
-50 -144 0
-50 -148 0
-89 -119 0
-89 -123 0
-89 -144 0
-89 -148 0
-119 -123 0
-119 -144 0
-119 -148 0
-123 -144 0
-123 -148 0
-144 -148 0
-47 51 90 120 124 145 149 0
-51 47 0
-90 47 0
-120 47 0
-124 47 0
-145 47 0
-149 47 0
-51 -90 0
-51 -120 0
-51 -124 0
-51 -145 0
-51 -149 0
-90 -120 0
-90 -124 0
-90 -145 0
-90 -149 0
-120 -124 0
-120 -145 0
-120 -149 0
-124 -145 0
-124 -149 0
-145 -149 0
-57 52 91 121 146 0
-52 57 0
-91 57 0
-121 57 0
-146 57 0
-52 -91 0
-52 -121 0
-52 -146 0
-91 -121 0
-91 -146 0
-121 -146 0
-53 56 92 122 147 0
-56 53 0
-92 53 0
-122 53 0
-147 53 0
-56 -92 0
-56 -122 0
-56 -147 0
-92 -122 0
-92 -147 0
-122 -147 0
-54 58 93 123 148 0
-58 54 0
-93 54 0
-123 54 0
-148 54 0
-58 -93 0
-58 -123 0
-58 -148 0
-93 -123 0
-93 -148 0
-123 -148 0
-55 59 94 124 149 0
-59 55 0
-94 55 0
-124 55 0
-149 55 0
-59 -94 0
-59 -124 0
-59 -149 0
-94 -124 0
-94 -149 0
-124 -149 0
150 151 152 153 154 155 0
-150 -151 0
-150 -152 0
-150 -153 0
-150 -154 0
-150 -155 0
-151 -152 0
-151 -153 0
-151 -154 0
-151 -155 0
-152 -153 0
-152 -154 0
-152 -155 0
-153 -154 0
-153 -155 0
-154 -155 0
156 157 158 159 0
-156 -157 0
-156 -158 0
-156 -159 0
-157 -158 0
-157 -159 0
-158 -159 0
-160 150 0
-160 156 0
-150 -156 160 0
-160 164 161 162 163 0
-160 -164 -161 0
-160 -164 -162 0
-160 -164 -163 0
-165 150 0
-165 157 0
-150 -157 165 0
-165 166 0
-165 164 162 163 0
-165 -164 -162 0
-165 -164 -163 0
-167 150 0
-167 158 0
-150 -158 167 0
-167 161 0
-167 164 163 0
-167 -164 -163 0
-168 150 0
-168 159 0
-150 -159 168 0
-168 162 0
-168 164 0
-169 151 0
-169 156 0
-151 -156 169 0
-169 164 170 171 172 0
-169 -164 -170 0
-169 -164 -171 0
-169 -164 -172 0
-173 151 0
-173 157 0
-151 -157 173 0
-173 174 0
-173 164 171 172 0
-173 -164 -171 0
-173 -164 -172 0
-175 151 0
-175 158 0
-151 -158 175 0
-175 170 0
-175 164 172 0
-175 -164 -172 0
-176 151 0
-176 159 0
-151 -159 176 0
-176 171 0
-176 164 0
-177 152 0
-177 156 0
-152 -156 177 0
-177 164 178 179 180 0
-177 -164 -178 0
-177 -164 -179 0
-177 -164 -180 0
-181 152 0
-181 157 0
-152 -157 181 0
-181 182 0
-181 164 179 180 0
-181 -164 -179 0
-181 -164 -180 0
-183 152 0
-183 158 0
-152 -158 183 0
-183 178 0
-183 164 180 0
-183 -164 -180 0
-184 152 0
-184 159 0
-152 -159 184 0
-184 179 0
-184 164 0
-185 153 0
-185 156 0
-153 -156 185 0
-185 164 186 187 188 0
-185 -164 -186 0
-185 -164 -187 0
-185 -164 -188 0
-189 153 0
-189 157 0
-153 -157 189 0
-189 190 0
-189 164 187 188 0
-189 -164 -187 0
-189 -164 -188 0
-191 153 0
-191 158 0
-153 -158 191 0
-191 186 0
-191 164 188 0
-191 -164 -188 0
-192 153 0
-192 159 0
-153 -159 192 0
-192 187 0
-192 164 0
-193 154 0
-193 156 0
-154 -156 193 0
-193 164 194 195 196 0
-193 -164 -194 0
-193 -164 -195 0
-193 -164 -196 0
-197 154 0
-197 157 0
-154 -157 197 0
-197 198 0
-197 164 195 196 0
-197 -164 -195 0
-197 -164 -196 0
-199 154 0
-199 158 0
-154 -158 199 0
-199 194 0
-199 164 196 0
-199 -164 -196 0
-200 154 0
-200 159 0
-154 -159 200 0
-200 195 0
-200 164 0
-201 155 0
-201 156 0
-155 -156 201 0
-201 164 202 203 204 0
-201 -164 -202 0
-201 -164 -203 0
-201 -164 -204 0
-205 155 0
-205 157 0
-155 -157 205 0
-205 206 0
-205 164 203 204 0
-205 -164 -203 0
-205 -164 -204 0
-207 155 0
-207 158 0
-155 -158 207 0
-207 202 0
-207 164 204 0
-207 -164 -204 0
-208 155 0
-208 159 0
-155 -159 208 0
-208 203 0
-208 164 0
209 210 211 212 213 214 0
-209 -210 0
-209 -211 0
-209 -212 0
-209 -213 0
-209 -214 0
-210 -211 0
-210 -212 0
-210 -213 0
-210 -214 0
-211 -212 0
-211 -213 0
-211 -214 0
-212 -213 0
-212 -214 0
-213 -214 0
215 216 217 218 0
-215 -216 0
-215 -217 0
-215 -218 0
-216 -217 0
-216 -218 0
-217 -218 0
-219 209 0
-219 215 0
-209 -215 219 0
-219 220 161 162 163 0
-219 -220 -161 0
-219 -220 -162 0
-219 -220 -163 0
-221 209 0
-221 216 0
-209 -216 221 0
-221 166 0
-221 220 162 163 0
-221 -220 -162 0
-221 -220 -163 0
-222 209 0
-222 217 0
-209 -217 222 0
-222 161 0
-222 220 163 0
-222 -220 -163 0
-223 209 0
-223 218 0
-209 -218 223 0
-223 162 0
-223 220 0
-224 210 0
-224 215 0
-210 -215 224 0
-224 220 170 171 172 0
-224 -220 -170 0
-224 -220 -171 0
-224 -220 -172 0
-225 210 0
-225 216 0
-210 -216 225 0
-225 174 0
-225 220 171 172 0
-225 -220 -171 0
-225 -220 -172 0
-226 210 0
-226 217 0
-210 -217 226 0
-226 170 0
-226 220 172 0
-226 -220 -172 0
-227 210 0
-227 218 0
-210 -218 227 0
-227 171 0
-227 220 0
-228 211 0
-228 215 0
-211 -215 228 0
-228 220 178 179 180 0
-228 -220 -178 0
-228 -220 -179 0
-228 -220 -180 0
-229 211 0
-229 216 0
-211 -216 229 0
-229 182 0
-229 220 179 180 0
-229 -220 -179 0
-229 -220 -180 0
-230 211 0
-230 217 0
-211 -217 230 0
-230 178 0
-230 220 180 0
-230 -220 -180 0
-231 211 0
-231 218 0
-211 -218 231 0
-231 179 0
-231 220 0
-232 212 0
-232 215 0
-212 -215 232 0
-232 220 186 187 188 0
-232 -220 -186 0
-232 -220 -187 0
-232 -220 -188 0
-233 212 0
-233 216 0
-212 -216 233 0
-233 190 0
-233 220 187 188 0
-233 -220 -187 0
-233 -220 -188 0
-234 212 0
-234 217 0
-212 -217 234 0
-234 186 0
-234 220 188 0
-234 -220 -188 0
-235 212 0
-235 218 0
-212 -218 235 0
-235 187 0
-235 220 0
-236 213 0
-236 215 0
-213 -215 236 0
-236 220 194 195 196 0
-236 -220 -194 0
-236 -220 -195 0
-236 -220 -196 0
-237 213 0
-237 216 0
-213 -216 237 0
-237 198 0
-237 220 195 196 0
-237 -220 -195 0
-237 -220 -196 0
-238 213 0
-238 217 0
-213 -217 238 0
-238 194 0
-238 220 196 0
-238 -220 -196 0
-239 213 0
-239 218 0
-213 -218 239 0
-239 195 0
-239 220 0
-240 214 0
-240 215 0
-214 -215 240 0
-240 220 202 203 204 0
-240 -220 -202 0
-240 -220 -203 0
-240 -220 -204 0
-241 214 0
-241 216 0
-214 -216 241 0
-241 206 0
-241 220 203 204 0
-241 -220 -203 0
-241 -220 -204 0
-242 214 0
-242 217 0
-214 -217 242 0
-242 202 0
-242 220 204 0
-242 -220 -204 0
-243 214 0
-243 218 0
-214 -218 243 0
-243 203 0
-243 220 0
244 245 246 247 248 0
-244 -245 0
-244 -246 0
-244 -247 0
-244 -248 0
-245 -246 0
-245 -247 0
-245 -248 0
-246 -247 0
-246 -248 0
-247 -248 0
249 250 251 252 0
-249 -250 0
-249 -251 0
-249 -252 0
-250 -251 0
-250 -252 0
-251 -252 0
-253 244 0
-253 249 0
-244 -249 253 0
-253 254 161 162 163 170 171 172 0
-253 -254 -161 0
-253 -254 -162 0
-253 -254 -163 0
-253 -254 -170 0
-253 -254 -171 0
-253 -254 -172 0
-255 244 0
-255 250 0
-244 -250 255 0
-255 166 174 0
-255 254 162 163 171 172 0
-255 -254 -162 0
-255 -254 -163 0
-255 -254 -171 0
-255 -254 -172 0
-256 244 0
-256 251 0
-244 -251 256 0
-256 161 170 0
-256 254 163 172 0
-256 -254 -163 0
-256 -254 -172 0
-257 244 0
-257 252 0
-244 -252 257 0
-257 162 171 0
-257 254 0
-258 245 0
-258 249 0
-245 -249 258 0
-258 254 170 171 172 178 179 180 0
-258 -254 -170 0
-258 -254 -171 0
-258 -254 -172 0
-258 -254 -178 0
-258 -254 -179 0
-258 -254 -180 0
-259 245 0
-259 250 0
-245 -250 259 0
-259 174 182 0
-259 254 171 172 179 180 0
-259 -254 -171 0
-259 -254 -172 0
-259 -254 -179 0
-259 -254 -180 0
-260 245 0
-260 251 0
-245 -251 260 0
-260 170 178 0
-260 254 172 180 0
-260 -254 -172 0
-260 -254 -180 0
-261 245 0
-261 252 0
-245 -252 261 0
-261 171 179 0
-261 254 0
-262 246 0
-262 249 0
-246 -249 262 0
-262 254 178 179 180 186 187 188 0
-262 -254 -178 0
-262 -254 -179 0
-262 -254 -180 0
-262 -254 -186 0
-262 -254 -187 0
-262 -254 -188 0
-263 246 0
-263 250 0
-246 -250 263 0
-263 182 190 0
-263 254 179 180 187 188 0
-263 -254 -179 0
-263 -254 -180 0
-263 -254 -187 0
-263 -254 -188 0
-264 246 0
-264 251 0
-246 -251 264 0
-264 178 186 0
-264 254 180 188 0
-264 -254 -180 0
-264 -254 -188 0
-265 246 0
-265 252 0
-246 -252 265 0
-265 179 187 0
-265 254 0
-266 247 0
-266 249 0
-247 -249 266 0
-266 254 186 187 188 194 195 196 0
-266 -254 -186 0
-266 -254 -187 0
-266 -254 -188 0
-266 -254 -194 0
-266 -254 -195 0
-266 -254 -196 0
-267 247 0
-267 250 0
-247 -250 267 0
-267 190 198 0
-267 254 187 188 195 196 0
-267 -254 -187 0
-267 -254 -188 0
-267 -254 -195 0
-267 -254 -196 0
-268 247 0
-268 251 0
-247 -251 268 0
-268 186 194 0
-268 254 188 196 0
-268 -254 -188 0
-268 -254 -196 0
-269 247 0
-269 252 0
-247 -252 269 0
-269 187 195 0
-269 254 0
-270 248 0
-270 249 0
-248 -249 270 0
-270 254 194 195 196 202 203 204 0
-270 -254 -194 0
-270 -254 -195 0
-270 -254 -196 0
-270 -254 -202 0
-270 -254 -203 0
-270 -254 -204 0
-271 248 0
-271 250 0
-248 -250 271 0
-271 198 206 0
-271 254 195 196 203 204 0
-271 -254 -195 0
-271 -254 -196 0
-271 -254 -203 0
-271 -254 -204 0
-272 248 0
-272 251 0
-248 -251 272 0
-272 194 202 0
-272 254 196 204 0
-272 -254 -196 0
-272 -254 -204 0
-273 248 0
-273 252 0
-248 -252 273 0
-273 195 203 0
-273 254 0
274 275 276 277 0
-274 -275 0
-274 -276 0
-274 -277 0
-275 -276 0
-275 -277 0
-276 -277 0
278 279 280 281 0
-278 -279 0
-278 -280 0
-278 -281 0
-279 -280 0
-279 -281 0
-280 -281 0
-282 274 0
-282 278 0
-274 -278 282 0
-282 283 161 162 163 170 171 172 178 179 180 0
-282 -283 -161 0
-282 -283 -162 0
-282 -283 -163 0
-282 -283 -170 0
-282 -283 -171 0
-282 -283 -172 0
-282 -283 -178 0
-282 -283 -179 0
-282 -283 -180 0
-284 274 0
-284 279 0
-274 -279 284 0
-284 166 174 0
-284 166 182 0
-284 174 182 0
-284 283 162 163 171 172 179 180 0
-284 -283 -162 0
-284 -283 -163 0
-284 -283 -171 0
-284 -283 -172 0
-284 -283 -179 0
-284 -283 -180 0
-285 274 0
-285 280 0
-274 -280 285 0
-285 161 170 0
-285 161 178 0
-285 170 178 0
-285 283 163 172 180 0
-285 -283 -163 0
-285 -283 -172 0
-285 -283 -180 0
-286 274 0
-286 281 0
-274 -281 286 0
-286 162 171 0
-286 162 179 0
-286 171 179 0
-286 283 0
-287 275 0
-287 278 0
-275 -278 287 0
-287 283 170 171 172 178 179 180 186 187 188 0
-287 -283 -170 0
-287 -283 -171 0
-287 -283 -172 0
-287 -283 -178 0
-287 -283 -179 0
-287 -283 -180 0
-287 -283 -186 0
-287 -283 -187 0
-287 -283 -188 0
-288 275 0
-288 279 0
-275 -279 288 0
-288 174 182 0
-288 174 190 0
-288 182 190 0
-288 283 171 172 179 180 187 188 0
-288 -283 -171 0
-288 -283 -172 0
-288 -283 -179 0
-288 -283 -180 0
-288 -283 -187 0
-288 -283 -188 0
-289 275 0
-289 280 0
-275 -280 289 0
-289 170 178 0
-289 170 186 0
-289 178 186 0
-289 283 172 180 188 0
-289 -283 -172 0
-289 -283 -180 0
-289 -283 -188 0
-290 275 0
-290 281 0
-275 -281 290 0
-290 171 179 0
-290 171 187 0
-290 179 187 0
-290 283 0
-291 276 0
-291 278 0
-276 -278 291 0
-291 283 178 179 180 186 187 188 194 195 196 0
-291 -283 -178 0
-291 -283 -179 0
-291 -283 -180 0
-291 -283 -186 0
-291 -283 -187 0
-291 -283 -188 0
-291 -283 -194 0
-291 -283 -195 0
-291 -283 -196 0
-292 276 0
-292 279 0
-276 -279 292 0
-292 182 190 0
-292 182 198 0
-292 190 198 0
-292 283 179 180 187 188 195 196 0
-292 -283 -179 0
-292 -283 -180 0
-292 -283 -187 0
-292 -283 -188 0
-292 -283 -195 0
-292 -283 -196 0
-293 276 0
-293 280 0
-276 -280 293 0
-293 178 186 0
-293 178 194 0
-293 186 194 0
-293 283 180 188 196 0
-293 -283 -180 0
-293 -283 -188 0
-293 -283 -196 0
-294 276 0
-294 281 0
-276 -281 294 0
-294 179 187 0
-294 179 195 0
-294 187 195 0
-294 283 0
-295 277 0
-295 278 0
-277 -278 295 0
-295 283 186 187 188 194 195 196 202 203 204 0
-295 -283 -186 0
-295 -283 -187 0
-295 -283 -188 0
-295 -283 -194 0
-295 -283 -195 0
-295 -283 -196 0
-295 -283 -202 0
-295 -283 -203 0
-295 -283 -204 0
-296 277 0
-296 279 0
-277 -279 296 0
-296 190 198 0
-296 190 206 0
-296 198 206 0
-296 283 187 188 195 196 203 204 0
-296 -283 -187 0
-296 -283 -188 0
-296 -283 -195 0
-296 -283 -196 0
-296 -283 -203 0
-296 -283 -204 0
-297 277 0
-297 280 0
-277 -280 297 0
-297 186 194 0
-297 186 202 0
-297 194 202 0
-297 283 188 196 204 0
-297 -283 -188 0
-297 -283 -196 0
-297 -283 -204 0
-298 277 0
-298 281 0
-277 -281 298 0
-298 187 195 0
-298 187 203 0
-298 195 203 0
-298 283 0
-166 160 219 253 282 0
-160 166 0
-219 166 0
-253 166 0
-282 166 0
-160 -219 0
-160 -253 0
-160 -282 0
-219 -253 0
-219 -282 0
-253 -282 0
-161 165 221 255 284 0
-165 161 0
-221 161 0
-255 161 0
-284 161 0
-165 -221 0
-165 -255 0
-165 -284 0
-221 -255 0
-221 -284 0
-255 -284 0
-162 167 222 256 285 0
-167 162 0
-222 162 0
-256 162 0
-285 162 0
-167 -222 0
-167 -256 0
-167 -285 0
-222 -256 0
-222 -285 0
-256 -285 0
-163 168 223 257 286 0
-168 163 0
-223 163 0
-257 163 0
-286 163 0
-168 -223 0
-168 -257 0
-168 -286 0
-223 -257 0
-223 -286 0
-257 -286 0
-174 169 224 253 258 282 287 0
-169 174 0
-224 174 0
-253 174 0
-258 174 0
-282 174 0
-287 174 0
-169 -224 0
-169 -253 0
-169 -258 0
-169 -282 0
-169 -287 0
-224 -253 0
-224 -258 0
-224 -282 0
-224 -287 0
-253 -258 0
-253 -282 0
-253 -287 0
-258 -282 0
-258 -287 0
-282 -287 0
-170 173 225 255 259 284 288 0
-173 170 0
-225 170 0
-255 170 0
-259 170 0
-284 170 0
-288 170 0
-173 -225 0
-173 -255 0
-173 -259 0
-173 -284 0
-173 -288 0
-225 -255 0
-225 -259 0
-225 -284 0
-225 -288 0
-255 -259 0
-255 -284 0
-255 -288 0
-259 -284 0
-259 -288 0
-284 -288 0
-171 175 226 256 260 285 289 0
-175 171 0
-226 171 0
-256 171 0
-260 171 0
-285 171 0
-289 171 0
-175 -226 0
-175 -256 0
-175 -260 0
-175 -285 0
-175 -289 0
-226 -256 0
-226 -260 0
-226 -285 0
-226 -289 0
-256 -260 0
-256 -285 0
-256 -289 0
-260 -285 0
-260 -289 0
-285 -289 0
-172 176 227 257 261 286 290 0
-176 172 0
-227 172 0
-257 172 0
-261 172 0
-286 172 0
-290 172 0
-176 -227 0
-176 -257 0
-176 -261 0
-176 -286 0
-176 -290 0
-227 -257 0
-227 -261 0
-227 -286 0
-227 -290 0
-257 -261 0
-257 -286 0
-257 -290 0
-261 -286 0
-261 -290 0
-286 -290 0
-182 177 228 258 262 282 287 291 0
-177 182 0
-228 182 0
-258 182 0
-262 182 0
-282 182 0
-287 182 0
-291 182 0
-177 -228 0
-177 -258 0
-177 -262 0
-177 -282 0
-177 -287 0
-177 -291 0
-228 -258 0
-228 -262 0
-228 -282 0
-228 -287 0
-228 -291 0
-258 -262 0
-258 -282 0
-258 -287 0
-258 -291 0
-262 -282 0
-262 -287 0
-262 -291 0
-282 -287 0
-282 -291 0
-287 -291 0
-178 181 229 259 263 284 288 292 0
-181 178 0
-229 178 0
-259 178 0
-263 178 0
-284 178 0
-288 178 0
-292 178 0
-181 -229 0
-181 -259 0
-181 -263 0
-181 -284 0
-181 -288 0
-181 -292 0
-229 -259 0
-229 -263 0
-229 -284 0
-229 -288 0
-229 -292 0
-259 -263 0
-259 -284 0
-259 -288 0
-259 -292 0
-263 -284 0
-263 -288 0
-263 -292 0
-284 -288 0
-284 -292 0
-288 -292 0
-179 183 230 260 264 285 289 293 0
-183 179 0
-230 179 0
-260 179 0
-264 179 0
-285 179 0
-289 179 0
-293 179 0
-183 -230 0
-183 -260 0
-183 -264 0
-183 -285 0
-183 -289 0
-183 -293 0
-230 -260 0
-230 -264 0
-230 -285 0
-230 -289 0
-230 -293 0
-260 -264 0
-260 -285 0
-260 -289 0
-260 -293 0
-264 -285 0
-264 -289 0
-264 -293 0
-285 -289 0
-285 -293 0
-289 -293 0
-180 184 231 261 265 286 290 294 0
-184 180 0
-231 180 0
-261 180 0
-265 180 0
-286 180 0
-290 180 0
-294 180 0
-184 -231 0
-184 -261 0
-184 -265 0
-184 -286 0
-184 -290 0
-184 -294 0
-231 -261 0
-231 -265 0
-231 -286 0
-231 -290 0
-231 -294 0
-261 -265 0
-261 -286 0
-261 -290 0
-261 -294 0
-265 -286 0
-265 -290 0
-265 -294 0
-286 -290 0
-286 -294 0
-290 -294 0
-190 185 232 262 266 287 291 295 0
-185 190 0
-232 190 0
-262 190 0
-266 190 0
-287 190 0
-291 190 0
-295 190 0
-185 -232 0
-185 -262 0
-185 -266 0
-185 -287 0
-185 -291 0
-185 -295 0
-232 -262 0
-232 -266 0
-232 -287 0
-232 -291 0
-232 -295 0
-262 -266 0
-262 -287 0
-262 -291 0
-262 -295 0
-266 -287 0
-266 -291 0
-266 -295 0
-287 -291 0
-287 -295 0
-291 -295 0
-186 189 233 263 267 288 292 296 0
-189 186 0
-233 186 0
-263 186 0
-267 186 0
-288 186 0
-292 186 0
-296 186 0
-189 -233 0
-189 -263 0
-189 -267 0
-189 -288 0
-189 -292 0
-189 -296 0
-233 -263 0
-233 -267 0
-233 -288 0
-233 -292 0
-233 -296 0
-263 -267 0
-263 -288 0
-263 -292 0
-263 -296 0
-267 -288 0
-267 -292 0
-267 -296 0
-288 -292 0
-288 -296 0
-292 -296 0
-187 191 234 264 268 289 293 297 0
-191 187 0
-234 187 0
-264 187 0
-268 187 0
-289 187 0
-293 187 0
-297 187 0
-191 -234 0
-191 -264 0
-191 -268 0
-191 -289 0
-191 -293 0
-191 -297 0
-234 -264 0
-234 -268 0
-234 -289 0
-234 -293 0
-234 -297 0
-264 -268 0
-264 -289 0
-264 -293 0
-264 -297 0
-268 -289 0
-268 -293 0
-268 -297 0
-289 -293 0
-289 -297 0
-293 -297 0
-188 192 235 265 269 290 294 298 0
-192 188 0
-235 188 0
-265 188 0
-269 188 0
-290 188 0
-294 188 0
-298 188 0
-192 -235 0
-192 -265 0
-192 -269 0
-192 -290 0
-192 -294 0
-192 -298 0
-235 -265 0
-235 -269 0
-235 -290 0
-235 -294 0
-235 -298 0
-265 -269 0
-265 -290 0
-265 -294 0
-265 -298 0
-269 -290 0
-269 -294 0
-269 -298 0
-290 -294 0
-290 -298 0
-294 -298 0
-198 193 236 266 270 291 295 0
-193 198 0
-236 198 0
-266 198 0
-270 198 0
-291 198 0
-295 198 0
-193 -236 0
-193 -266 0
-193 -270 0
-193 -291 0
-193 -295 0
-236 -266 0
-236 -270 0
-236 -291 0
-236 -295 0
-266 -270 0
-266 -291 0
-266 -295 0
-270 -291 0
-270 -295 0
-291 -295 0
-194 197 237 267 271 292 296 0
-197 194 0
-237 194 0
-267 194 0
-271 194 0
-292 194 0
-296 194 0
-197 -237 0
-197 -267 0
-197 -271 0
-197 -292 0
-197 -296 0
-237 -267 0
-237 -271 0
-237 -292 0
-237 -296 0
-267 -271 0
-267 -292 0
-267 -296 0
-271 -292 0
-271 -296 0
-292 -296 0
-195 199 238 268 272 293 297 0
-199 195 0
-238 195 0
-268 195 0
-272 195 0
-293 195 0
-297 195 0
-199 -238 0
-199 -268 0
-199 -272 0
-199 -293 0
-199 -297 0
-238 -268 0
-238 -272 0
-238 -293 0
-238 -297 0
-268 -272 0
-268 -293 0
-268 -297 0
-272 -293 0
-272 -297 0
-293 -297 0
-196 200 239 269 273 294 298 0
-200 196 0
-239 196 0
-269 196 0
-273 196 0
-294 196 0
-298 196 0
-200 -239 0
-200 -269 0
-200 -273 0
-200 -294 0
-200 -298 0
-239 -269 0
-239 -273 0
-239 -294 0
-239 -298 0
-269 -273 0
-269 -294 0
-269 -298 0
-273 -294 0
-273 -298 0
-294 -298 0
-206 201 240 270 295 0
-201 206 0
-240 206 0
-270 206 0
-295 206 0
-201 -240 0
-201 -270 0
-201 -295 0
-240 -270 0
-240 -295 0
-270 -295 0
-202 205 241 271 296 0
-205 202 0
-241 202 0
-271 202 0
-296 202 0
-205 -241 0
-205 -271 0
-205 -296 0
-241 -271 0
-241 -296 0
-271 -296 0
-203 207 242 272 297 0
-207 203 0
-242 203 0
-272 203 0
-297 203 0
-207 -242 0
-207 -272 0
-207 -297 0
-242 -272 0
-242 -297 0
-272 -297 0
-204 208 243 273 298 0
-208 204 0
-243 204 0
-273 204 0
-298 204 0
-208 -243 0
-208 -273 0
-208 -298 0
-243 -273 0
-243 -298 0
-273 -298 0
299 300 301 302 303 304 0
-299 -300 0
-299 -301 0
-299 -302 0
-299 -303 0
-299 -304 0
-300 -301 0
-300 -302 0
-300 -303 0
-300 -304 0
-301 -302 0
-301 -303 0
-301 -304 0
-302 -303 0
-302 -304 0
-303 -304 0
305 306 307 308 0
-305 -306 0
-305 -307 0
-305 -308 0
-306 -307 0
-306 -308 0
-307 -308 0
-309 299 0
-309 305 0
-299 -305 309 0
-309 313 310 311 312 0
-309 -313 -310 0
-309 -313 -311 0
-309 -313 -312 0
-314 299 0
-314 306 0
-299 -306 314 0
-314 315 0
-314 313 311 312 0
-314 -313 -311 0
-314 -313 -312 0
-316 299 0
-316 307 0
-299 -307 316 0
-316 310 0
-316 313 312 0
-316 -313 -312 0
-317 299 0
-317 308 0
-299 -308 317 0
-317 311 0
-317 313 0
-318 300 0
-318 305 0
-300 -305 318 0
-318 313 319 320 321 0
-318 -313 -319 0
-318 -313 -320 0
-318 -313 -321 0
-322 300 0
-322 306 0
-300 -306 322 0
-322 323 0
-322 313 320 321 0
-322 -313 -320 0
-322 -313 -321 0
-324 300 0
-324 307 0
-300 -307 324 0
-324 319 0
-324 313 321 0
-324 -313 -321 0
-325 300 0
-325 308 0
-300 -308 325 0
-325 320 0
-325 313 0
-326 301 0
-326 305 0
-301 -305 326 0
-326 313 327 328 329 0
-326 -313 -327 0
-326 -313 -328 0
-326 -313 -329 0
-330 301 0
-330 306 0
-301 -306 330 0
-330 331 0
-330 313 328 329 0
-330 -313 -328 0
-330 -313 -329 0
-332 301 0
-332 307 0
-301 -307 332 0
-332 327 0
-332 313 329 0
-332 -313 -329 0
-333 301 0
-333 308 0
-301 -308 333 0
-333 328 0
-333 313 0
-334 302 0
-334 305 0
-302 -305 334 0
-334 313 335 336 337 0
-334 -313 -335 0
-334 -313 -336 0
-334 -313 -337 0
-338 302 0
-338 306 0
-302 -306 338 0
-338 339 0
-338 313 336 337 0
-338 -313 -336 0
-338 -313 -337 0
-340 302 0
-340 307 0
-302 -307 340 0
-340 335 0
-340 313 337 0
-340 -313 -337 0
-341 302 0
-341 308 0
-302 -308 341 0
-341 336 0
-341 313 0
-342 303 0
-342 305 0
-303 -305 342 0
-342 313 343 344 345 0
-342 -313 -343 0
-342 -313 -344 0
-342 -313 -345 0
-346 303 0
-346 306 0
-303 -306 346 0
-346 347 0
-346 313 344 345 0
-346 -313 -344 0
-346 -313 -345 0
-348 303 0
-348 307 0
-303 -307 348 0
-348 343 0
-348 313 345 0
-348 -313 -345 0
-349 303 0
-349 308 0
-303 -308 349 0
-349 344 0
-349 313 0
-350 304 0
-350 305 0
-304 -305 350 0
-350 313 351 352 353 0
-350 -313 -351 0
-350 -313 -352 0
-350 -313 -353 0
-354 304 0
-354 306 0
-304 -306 354 0
-354 355 0
-354 313 352 353 0
-354 -313 -352 0
-354 -313 -353 0
-356 304 0
-356 307 0
-304 -307 356 0
-356 351 0
-356 313 353 0
-356 -313 -353 0
-357 304 0
-357 308 0
-304 -308 357 0
-357 352 0
-357 313 0
358 359 360 361 362 363 0
-358 -359 0
-358 -360 0
-358 -361 0
-358 -362 0
-358 -363 0
-359 -360 0
-359 -361 0
-359 -362 0
-359 -363 0
-360 -361 0
-360 -362 0
-360 -363 0
-361 -362 0
-361 -363 0
-362 -363 0
364 365 366 367 0
-364 -365 0
-364 -366 0
-364 -367 0
-365 -366 0
-365 -367 0
-366 -367 0
-368 358 0
-368 364 0
-358 -364 368 0
-368 369 310 311 312 0
-368 -369 -310 0
-368 -369 -311 0
-368 -369 -312 0
-370 358 0
-370 365 0
-358 -365 370 0
-370 315 0
-370 369 311 312 0
-370 -369 -311 0
-370 -369 -312 0
-371 358 0
-371 366 0
-358 -366 371 0
-371 310 0
-371 369 312 0
-371 -369 -312 0
-372 358 0
-372 367 0
-358 -367 372 0
-372 311 0
-372 369 0
-373 359 0
-373 364 0
-359 -364 373 0
-373 369 319 320 321 0
-373 -369 -319 0
-373 -369 -320 0
-373 -369 -321 0
-374 359 0
-374 365 0
-359 -365 374 0
-374 323 0
-374 369 320 321 0
-374 -369 -320 0
-374 -369 -321 0
-375 359 0
-375 366 0
-359 -366 375 0
-375 319 0
-375 369 321 0
-375 -369 -321 0
-376 359 0
-376 367 0
-359 -367 376 0
-376 320 0
-376 369 0
-377 360 0
-377 364 0
-360 -364 377 0
-377 369 327 328 329 0
-377 -369 -327 0
-377 -369 -328 0
-377 -369 -329 0
-378 360 0
-378 365 0
-360 -365 378 0
-378 331 0
-378 369 328 329 0
-378 -369 -328 0
-378 -369 -329 0
-379 360 0
-379 366 0
-360 -366 379 0
-379 327 0
-379 369 329 0
-379 -369 -329 0
-380 360 0
-380 367 0
-360 -367 380 0
-380 328 0
-380 369 0
-381 361 0
-381 364 0
-361 -364 381 0
-381 369 335 336 337 0
-381 -369 -335 0
-381 -369 -336 0
-381 -369 -337 0
-382 361 0
-382 365 0
-361 -365 382 0
-382 339 0
-382 369 336 337 0
-382 -369 -336 0
-382 -369 -337 0
-383 361 0
-383 366 0
-361 -366 383 0
-383 335 0
-383 369 337 0
-383 -369 -337 0
-384 361 0
-384 367 0
-361 -367 384 0
-384 336 0
-384 369 0
-385 362 0
-385 364 0
-362 -364 385 0
-385 369 343 344 345 0
-385 -369 -343 0
-385 -369 -344 0
-385 -369 -345 0
-386 362 0
-386 365 0
-362 -365 386 0
-386 347 0
-386 369 344 345 0
-386 -369 -344 0
-386 -369 -345 0
-387 362 0
-387 366 0
-362 -366 387 0
-387 343 0
-387 369 345 0
-387 -369 -345 0
-388 362 0
-388 367 0
-362 -367 388 0
-388 344 0
-388 369 0
-389 363 0
-389 364 0
-363 -364 389 0
-389 369 351 352 353 0
-389 -369 -351 0
-389 -369 -352 0
-389 -369 -353 0
-390 363 0
-390 365 0
-363 -365 390 0
-390 355 0
-390 369 352 353 0
-390 -369 -352 0
-390 -369 -353 0
-391 363 0
-391 366 0
-363 -366 391 0
-391 351 0
-391 369 353 0
-391 -369 -353 0
-392 363 0
-392 367 0
-363 -367 392 0
-392 352 0
-392 369 0
393 394 395 396 397 0
-393 -394 0
-393 -395 0
-393 -396 0
-393 -397 0
-394 -395 0
-394 -396 0
-394 -397 0
-395 -396 0
-395 -397 0
-396 -397 0
398 399 400 401 0
-398 -399 0
-398 -400 0
-398 -401 0
-399 -400 0
-399 -401 0
-400 -401 0
-402 393 0
-402 398 0
-393 -398 402 0
-402 403 310 311 312 319 320 321 0
-402 -403 -310 0
-402 -403 -311 0
-402 -403 -312 0
-402 -403 -319 0
-402 -403 -320 0
-402 -403 -321 0
-404 393 0
-404 399 0
-393 -399 404 0
-404 315 323 0
-404 403 311 312 320 321 0
-404 -403 -311 0
-404 -403 -312 0
-404 -403 -320 0
-404 -403 -321 0
-405 393 0
-405 400 0
-393 -400 405 0
-405 310 319 0
-405 403 312 321 0
-405 -403 -312 0
-405 -403 -321 0
-406 393 0
-406 401 0
-393 -401 406 0
-406 311 320 0
-406 403 0
-407 394 0
-407 398 0
-394 -398 407 0
-407 403 319 320 321 327 328 329 0
-407 -403 -319 0
-407 -403 -320 0
-407 -403 -321 0
-407 -403 -327 0
-407 -403 -328 0
-407 -403 -329 0
-408 394 0
-408 399 0
-394 -399 408 0
-408 323 331 0
-408 403 320 321 328 329 0
-408 -403 -320 0
-408 -403 -321 0
-408 -403 -328 0
-408 -403 -329 0
-409 394 0
-409 400 0
-394 -400 409 0
-409 319 327 0
-409 403 321 329 0
-409 -403 -321 0
-409 -403 -329 0
-410 394 0
-410 401 0
-394 -401 410 0
-410 320 328 0
-410 403 0
-411 395 0
-411 398 0
-395 -398 411 0
-411 403 327 328 329 335 336 337 0
-411 -403 -327 0
-411 -403 -328 0
-411 -403 -329 0
-411 -403 -335 0
-411 -403 -336 0
-411 -403 -337 0
-412 395 0
-412 399 0
-395 -399 412 0
-412 331 339 0
-412 403 328 329 336 337 0
-412 -403 -328 0
-412 -403 -329 0
-412 -403 -336 0
-412 -403 -337 0
-413 395 0
-413 400 0
-395 -400 413 0
-413 327 335 0
-413 403 329 337 0
-413 -403 -329 0
-413 -403 -337 0
-414 395 0
-414 401 0
-395 -401 414 0
-414 328 336 0
-414 403 0
-415 396 0
-415 398 0
-396 -398 415 0
-415 403 335 336 337 343 344 345 0
-415 -403 -335 0
-415 -403 -336 0
-415 -403 -337 0
-415 -403 -343 0
-415 -403 -344 0
-415 -403 -345 0
-416 396 0
-416 399 0
-396 -399 416 0
-416 339 347 0
-416 403 336 337 344 345 0
-416 -403 -336 0
-416 -403 -337 0
-416 -403 -344 0
-416 -403 -345 0
-417 396 0
-417 400 0
-396 -400 417 0
-417 335 343 0
-417 403 337 345 0
-417 -403 -337 0
-417 -403 -345 0
-418 396 0
-418 401 0
-396 -401 418 0
-418 336 344 0
-418 403 0
-419 397 0
-419 398 0
-397 -398 419 0
-419 403 343 344 345 351 352 353 0
-419 -403 -343 0
-419 -403 -344 0
-419 -403 -345 0
-419 -403 -351 0
-419 -403 -352 0
-419 -403 -353 0
-420 397 0
-420 399 0
-397 -399 420 0
-420 347 355 0
-420 403 344 345 352 353 0
-420 -403 -344 0
-420 -403 -345 0
-420 -403 -352 0
-420 -403 -353 0
-421 397 0
-421 400 0
-397 -400 421 0
-421 343 351 0
-421 403 345 353 0
-421 -403 -345 0
-421 -403 -353 0
-422 397 0
-422 401 0
-397 -401 422 0
-422 344 352 0
-422 403 0
423 424 425 426 0
-423 -424 0
-423 -425 0
-423 -426 0
-424 -425 0
-424 -426 0
-425 -426 0
427 428 429 430 0
-427 -428 0
-427 -429 0
-427 -430 0
-428 -429 0
-428 -430 0
-429 -430 0
-431 423 0
-431 427 0
-423 -427 431 0
-431 432 310 311 312 319 320 321 327 328 329 0
-431 -432 -310 0
-431 -432 -311 0
-431 -432 -312 0
-431 -432 -319 0
-431 -432 -320 0
-431 -432 -321 0
-431 -432 -327 0
-431 -432 -328 0
-431 -432 -329 0
-433 423 0
-433 428 0
-423 -428 433 0
-433 315 323 0
-433 315 331 0
-433 323 331 0
-433 432 311 312 320 321 328 329 0
-433 -432 -311 0
-433 -432 -312 0
-433 -432 -320 0
-433 -432 -321 0
-433 -432 -328 0
-433 -432 -329 0
-434 423 0
-434 429 0
-423 -429 434 0
-434 310 319 0
-434 310 327 0
-434 319 327 0
-434 432 312 321 329 0
-434 -432 -312 0
-434 -432 -321 0
-434 -432 -329 0
-435 423 0
-435 430 0
-423 -430 435 0
-435 311 320 0
-435 311 328 0
-435 320 328 0
-435 432 0
-436 424 0
-436 427 0
-424 -427 436 0
-436 432 319 320 321 327 328 329 335 336 337 0
-436 -432 -319 0
-436 -432 -320 0
-436 -432 -321 0
-436 -432 -327 0
-436 -432 -328 0
-436 -432 -329 0
-436 -432 -335 0
-436 -432 -336 0
-436 -432 -337 0
-437 424 0
-437 428 0
-424 -428 437 0
-437 323 331 0
-437 323 339 0
-437 331 339 0
-437 432 320 321 328 329 336 337 0
-437 -432 -320 0
-437 -432 -321 0
-437 -432 -328 0
-437 -432 -329 0
-437 -432 -336 0
-437 -432 -337 0
-438 424 0
-438 429 0
-424 -429 438 0
-438 319 327 0
-438 319 335 0
-438 327 335 0
-438 432 321 329 337 0
-438 -432 -321 0
-438 -432 -329 0
-438 -432 -337 0
-439 424 0
-439 430 0
-424 -430 439 0
-439 320 328 0
-439 320 336 0
-439 328 336 0
-439 432 0
-440 425 0
-440 427 0
-425 -427 440 0
-440 432 327 328 329 335 336 337 343 344 345 0
-440 -432 -327 0
-440 -432 -328 0
-440 -432 -329 0
-440 -432 -335 0
-440 -432 -336 0
-440 -432 -337 0
-440 -432 -343 0
-440 -432 -344 0
-440 -432 -345 0
-441 425 0
-441 428 0
-425 -428 441 0
-441 331 339 0
-441 331 347 0
-441 339 347 0
-441 432 328 329 336 337 344 345 0
-441 -432 -328 0
-441 -432 -329 0
-441 -432 -336 0
-441 -432 -337 0
-441 -432 -344 0
-441 -432 -345 0
-442 425 0
-442 429 0
-425 -429 442 0
-442 327 335 0
-442 327 343 0
-442 335 343 0
-442 432 329 337 345 0
-442 -432 -329 0
-442 -432 -337 0
-442 -432 -345 0
-443 425 0
-443 430 0
-425 -430 443 0
-443 328 336 0
-443 328 344 0
-443 336 344 0
-443 432 0
-444 426 0
-444 427 0
-426 -427 444 0
-444 432 335 336 337 343 344 345 351 352 353 0
-444 -432 -335 0
-444 -432 -336 0
-444 -432 -337 0
-444 -432 -343 0
-444 -432 -344 0
-444 -432 -345 0
-444 -432 -351 0
-444 -432 -352 0
-444 -432 -353 0
-445 426 0
-445 428 0
-426 -428 445 0
-445 339 347 0
-445 339 355 0
-445 347 355 0
-445 432 336 337 344 345 352 353 0
-445 -432 -336 0
-445 -432 -337 0
-445 -432 -344 0
-445 -432 -345 0
-445 -432 -352 0
-445 -432 -353 0
-446 426 0
-446 429 0
-426 -429 446 0
-446 335 343 0
-446 335 351 0
-446 343 351 0
-446 432 337 345 353 0
-446 -432 -337 0
-446 -432 -345 0
-446 -432 -353 0
-447 426 0
-447 430 0
-426 -430 447 0
-447 336 344 0
-447 336 352 0
-447 344 352 0
-447 432 0
-315 309 368 402 431 0
-309 315 0
-368 315 0
-402 315 0
-431 315 0
-309 -368 0
-309 -402 0
-309 -431 0
-368 -402 0
-368 -431 0
-402 -431 0
-310 314 370 404 433 0
-314 310 0
-370 310 0
-404 310 0
-433 310 0
-314 -370 0
-314 -404 0
-314 -433 0
-370 -404 0
-370 -433 0
-404 -433 0
-311 316 371 405 434 0
-316 311 0
-371 311 0
-405 311 0
-434 311 0
-316 -371 0
-316 -405 0
-316 -434 0
-371 -405 0
-371 -434 0
-405 -434 0
-312 317 372 406 435 0
-317 312 0
-372 312 0
-406 312 0
-435 312 0
-317 -372 0
-317 -406 0
-317 -435 0
-372 -406 0
-372 -435 0
-406 -435 0
-323 318 373 402 407 431 436 0
-318 323 0
-373 323 0
-402 323 0
-407 323 0
-431 323 0
-436 323 0
-318 -373 0
-318 -402 0
-318 -407 0
-318 -431 0
-318 -436 0
-373 -402 0
-373 -407 0
-373 -431 0
-373 -436 0
-402 -407 0
-402 -431 0
-402 -436 0
-407 -431 0
-407 -436 0
-431 -436 0
-319 322 374 404 408 433 437 0
-322 319 0
-374 319 0
-404 319 0
-408 319 0
-433 319 0
-437 319 0
-322 -374 0
-322 -404 0
-322 -408 0
-322 -433 0
-322 -437 0
-374 -404 0
-374 -408 0
-374 -433 0
-374 -437 0
-404 -408 0
-404 -433 0
-404 -437 0
-408 -433 0
-408 -437 0
-433 -437 0
-320 324 375 405 409 434 438 0
-324 320 0
-375 320 0
-405 320 0
-409 320 0
-434 320 0
-438 320 0
-324 -375 0
-324 -405 0
-324 -409 0
-324 -434 0
-324 -438 0
-375 -405 0
-375 -409 0
-375 -434 0
-375 -438 0
-405 -409 0
-405 -434 0
-405 -438 0
-409 -434 0
-409 -438 0
-434 -438 0
-321 325 376 406 410 435 439 0
-325 321 0
-376 321 0
-406 321 0
-410 321 0
-435 321 0
-439 321 0
-325 -376 0
-325 -406 0
-325 -410 0
-325 -435 0
-325 -439 0
-376 -406 0
-376 -410 0
-376 -435 0
-376 -439 0
-406 -410 0
-406 -435 0
-406 -439 0
-410 -435 0
-410 -439 0
-435 -439 0
-331 326 377 407 411 431 436 440 0
-326 331 0
-377 331 0
-407 331 0
-411 331 0
-431 331 0
-436 331 0
-440 331 0
-326 -377 0
-326 -407 0
-326 -411 0
-326 -431 0
-326 -436 0
-326 -440 0
-377 -407 0
-377 -411 0
-377 -431 0
-377 -436 0
-377 -440 0
-407 -411 0
-407 -431 0
-407 -436 0
-407 -440 0
-411 -431 0
-411 -436 0
-411 -440 0
-431 -436 0
-431 -440 0
-436 -440 0
-327 330 378 408 412 433 437 441 0
-330 327 0
-378 327 0
-408 327 0
-412 327 0
-433 327 0
-437 327 0
-441 327 0
-330 -378 0
-330 -408 0
-330 -412 0
-330 -433 0
-330 -437 0
-330 -441 0
-378 -408 0
-378 -412 0
-378 -433 0
-378 -437 0
-378 -441 0
-408 -412 0
-408 -433 0
-408 -437 0
-408 -441 0
-412 -433 0
-412 -437 0
-412 -441 0
-433 -437 0
-433 -441 0
-437 -441 0
-328 332 379 409 413 434 438 442 0
-332 328 0
-379 328 0
-409 328 0
-413 328 0
-434 328 0
-438 328 0
-442 328 0
-332 -379 0
-332 -409 0
-332 -413 0
-332 -434 0
-332 -438 0
-332 -442 0
-379 -409 0
-379 -413 0
-379 -434 0
-379 -438 0
-379 -442 0
-409 -413 0
-409 -434 0
-409 -438 0
-409 -442 0
-413 -434 0
-413 -438 0
-413 -442 0
-434 -438 0
-434 -442 0
-438 -442 0
-329 333 380 410 414 435 439 443 0
-333 329 0
-380 329 0
-410 329 0
-414 329 0
-435 329 0
-439 329 0
-443 329 0
-333 -380 0
-333 -410 0
-333 -414 0
-333 -435 0
-333 -439 0
-333 -443 0
-380 -410 0
-380 -414 0
-380 -435 0
-380 -439 0
-380 -443 0
-410 -414 0
-410 -435 0
-410 -439 0
-410 -443 0
-414 -435 0
-414 -439 0
-414 -443 0
-435 -439 0
-435 -443 0
-439 -443 0
-339 334 381 411 415 436 440 444 0
-334 339 0
-381 339 0
-411 339 0
-415 339 0
-436 339 0
-440 339 0
-444 339 0
-334 -381 0
-334 -411 0
-334 -415 0
-334 -436 0
-334 -440 0
-334 -444 0
-381 -411 0
-381 -415 0
-381 -436 0
-381 -440 0
-381 -444 0
-411 -415 0
-411 -436 0
-411 -440 0
-411 -444 0
-415 -436 0
-415 -440 0
-415 -444 0
-436 -440 0
-436 -444 0
-440 -444 0
-335 338 382 412 416 437 441 445 0
-338 335 0
-382 335 0
-412 335 0
-416 335 0
-437 335 0
-441 335 0
-445 335 0
-338 -382 0
-338 -412 0
-338 -416 0
-338 -437 0
-338 -441 0
-338 -445 0
-382 -412 0
-382 -416 0
-382 -437 0
-382 -441 0
-382 -445 0
-412 -416 0
-412 -437 0
-412 -441 0
-412 -445 0
-416 -437 0
-416 -441 0
-416 -445 0
-437 -441 0
-437 -445 0
-441 -445 0
-336 340 383 413 417 438 442 446 0
-340 336 0
-383 336 0
-413 336 0
-417 336 0
-438 336 0
-442 336 0
-446 336 0
-340 -383 0
-340 -413 0
-340 -417 0
-340 -438 0
-340 -442 0
-340 -446 0
-383 -413 0
-383 -417 0
-383 -438 0
-383 -442 0
-383 -446 0
-413 -417 0
-413 -438 0
-413 -442 0
-413 -446 0
-417 -438 0
-417 -442 0
-417 -446 0
-438 -442 0
-438 -446 0
-442 -446 0
-337 341 384 414 418 439 443 447 0
-341 337 0
-384 337 0
-414 337 0
-418 337 0
-439 337 0
-443 337 0
-447 337 0
-341 -384 0
-341 -414 0
-341 -418 0
-341 -439 0
-341 -443 0
-341 -447 0
-384 -414 0
-384 -418 0
-384 -439 0
-384 -443 0
-384 -447 0
-414 -418 0
-414 -439 0
-414 -443 0
-414 -447 0
-418 -439 0
-418 -443 0
-418 -447 0
-439 -443 0
-439 -447 0
-443 -447 0
-347 342 385 415 419 440 444 0
-342 347 0
-385 347 0
-415 347 0
-419 347 0
-440 347 0
-444 347 0
-342 -385 0
-342 -415 0
-342 -419 0
-342 -440 0
-342 -444 0
-385 -415 0
-385 -419 0
-385 -440 0
-385 -444 0
-415 -419 0
-415 -440 0
-415 -444 0
-419 -440 0
-419 -444 0
-440 -444 0
-343 346 386 416 420 441 445 0
-346 343 0
-386 343 0
-416 343 0
-420 343 0
-441 343 0
-445 343 0
-346 -386 0
-346 -416 0
-346 -420 0
-346 -441 0
-346 -445 0
-386 -416 0
-386 -420 0
-386 -441 0
-386 -445 0
-416 -420 0
-416 -441 0
-416 -445 0
-420 -441 0
-420 -445 0
-441 -445 0
-344 348 387 417 421 442 446 0
-348 344 0
-387 344 0
-417 344 0
-421 344 0
-442 344 0
-446 344 0
-348 -387 0
-348 -417 0
-348 -421 0
-348 -442 0
-348 -446 0
-387 -417 0
-387 -421 0
-387 -442 0
-387 -446 0
-417 -421 0
-417 -442 0
-417 -446 0
-421 -442 0
-421 -446 0
-442 -446 0
-345 349 388 418 422 443 447 0
-349 345 0
-388 345 0
-418 345 0
-422 345 0
-443 345 0
-447 345 0
-349 -388 0
-349 -418 0
-349 -422 0
-349 -443 0
-349 -447 0
-388 -418 0
-388 -422 0
-388 -443 0
-388 -447 0
-418 -422 0
-418 -443 0
-418 -447 0
-422 -443 0
-422 -447 0
-443 -447 0
-355 350 389 419 444 0
-350 355 0
-389 355 0
-419 355 0
-444 355 0
-350 -389 0
-350 -419 0
-350 -444 0
-389 -419 0
-389 -444 0
-419 -444 0
-351 354 390 420 445 0
-354 351 0
-390 351 0
-420 351 0
-445 351 0
-354 -390 0
-354 -420 0
-354 -445 0
-390 -420 0
-390 -445 0
-420 -445 0
-352 356 391 421 446 0
-356 352 0
-391 352 0
-421 352 0
-446 352 0
-356 -391 0
-356 -421 0
-356 -446 0
-391 -421 0
-391 -446 0
-421 -446 0
-353 357 392 422 447 0
-357 353 0
-392 353 0
-422 353 0
-447 353 0
-357 -392 0
-357 -422 0
-357 -447 0
-392 -422 0
-392 -447 0
-422 -447 0
448 449 450 451 452 453 0
-448 -449 0
-448 -450 0
-448 -451 0
-448 -452 0
-448 -453 0
-449 -450 0
-449 -451 0
-449 -452 0
-449 -453 0
-450 -451 0
-450 -452 0
-450 -453 0
-451 -452 0
-451 -453 0
-452 -453 0
454 455 456 457 0
-454 -455 0
-454 -456 0
-454 -457 0
-455 -456 0
-455 -457 0
-456 -457 0
-458 448 0
-458 454 0
-448 -454 458 0
-458 462 459 460 461 0
-458 -462 -459 0
-458 -462 -460 0
-458 -462 -461 0
-463 448 0
-463 455 0
-448 -455 463 0
-463 464 0
-463 462 460 461 0
-463 -462 -460 0
-463 -462 -461 0
-465 448 0
-465 456 0
-448 -456 465 0
-465 459 0
-465 462 461 0
-465 -462 -461 0
-466 448 0
-466 457 0
-448 -457 466 0
-466 460 0
-466 462 0
-467 449 0
-467 454 0
-449 -454 467 0
-467 462 468 469 470 0
-467 -462 -468 0
-467 -462 -469 0
-467 -462 -470 0
-471 449 0
-471 455 0
-449 -455 471 0
-471 472 0
-471 462 469 470 0
-471 -462 -469 0
-471 -462 -470 0
-473 449 0
-473 456 0
-449 -456 473 0
-473 468 0
-473 462 470 0
-473 -462 -470 0
-474 449 0
-474 457 0
-449 -457 474 0
-474 469 0
-474 462 0
-475 450 0
-475 454 0
-450 -454 475 0
-475 462 476 477 478 0
-475 -462 -476 0
-475 -462 -477 0
-475 -462 -478 0
-479 450 0
-479 455 0
-450 -455 479 0
-479 480 0
-479 462 477 478 0
-479 -462 -477 0
-479 -462 -478 0
-481 450 0
-481 456 0
-450 -456 481 0
-481 476 0
-481 462 478 0
-481 -462 -478 0
-482 450 0
-482 457 0
-450 -457 482 0
-482 477 0
-482 462 0
-483 451 0
-483 454 0
-451 -454 483 0
-483 462 484 485 486 0
-483 -462 -484 0
-483 -462 -485 0
-483 -462 -486 0
-487 451 0
-487 455 0
-451 -455 487 0
-487 488 0
-487 462 485 486 0
-487 -462 -485 0
-487 -462 -486 0
-489 451 0
-489 456 0
-451 -456 489 0
-489 484 0
-489 462 486 0
-489 -462 -486 0
-490 451 0
-490 457 0
-451 -457 490 0
-490 485 0
-490 462 0
-491 452 0
-491 454 0
-452 -454 491 0
-491 462 492 493 494 0
-491 -462 -492 0
-491 -462 -493 0
-491 -462 -494 0
-495 452 0
-495 455 0
-452 -455 495 0
-495 496 0
-495 462 493 494 0
-495 -462 -493 0
-495 -462 -494 0
-497 452 0
-497 456 0
-452 -456 497 0
-497 492 0
-497 462 494 0
-497 -462 -494 0
-498 452 0
-498 457 0
-452 -457 498 0
-498 493 0
-498 462 0
-499 453 0
-499 454 0
-453 -454 499 0
-499 462 500 501 502 0
-499 -462 -500 0
-499 -462 -501 0
-499 -462 -502 0
-503 453 0
-503 455 0
-453 -455 503 0
-503 504 0
-503 462 501 502 0
-503 -462 -501 0
-503 -462 -502 0
-505 453 0
-505 456 0
-453 -456 505 0
-505 500 0
-505 462 502 0
-505 -462 -502 0
-506 453 0
-506 457 0
-453 -457 506 0
-506 501 0
-506 462 0
507 508 509 510 511 512 0
-507 -508 0
-507 -509 0
-507 -510 0
-507 -511 0
-507 -512 0
-508 -509 0
-508 -510 0
-508 -511 0
-508 -512 0
-509 -510 0
-509 -511 0
-509 -512 0
-510 -511 0
-510 -512 0
-511 -512 0
513 514 515 516 0
-513 -514 0
-513 -515 0
-513 -516 0
-514 -515 0
-514 -516 0
-515 -516 0
-517 507 0
-517 513 0
-507 -513 517 0
-517 518 459 460 461 0
-517 -518 -459 0
-517 -518 -460 0
-517 -518 -461 0
-519 507 0
-519 514 0
-507 -514 519 0
-519 464 0
-519 518 460 461 0
-519 -518 -460 0
-519 -518 -461 0
-520 507 0
-520 515 0
-507 -515 520 0
-520 459 0
-520 518 461 0
-520 -518 -461 0
-521 507 0
-521 516 0
-507 -516 521 0
-521 460 0
-521 518 0
-522 508 0
-522 513 0
-508 -513 522 0
-522 518 468 469 470 0
-522 -518 -468 0
-522 -518 -469 0
-522 -518 -470 0
-523 508 0
-523 514 0
-508 -514 523 0
-523 472 0
-523 518 469 470 0
-523 -518 -469 0
-523 -518 -470 0
-524 508 0
-524 515 0
-508 -515 524 0
-524 468 0
-524 518 470 0
-524 -518 -470 0
-525 508 0
-525 516 0
-508 -516 525 0
-525 469 0
-525 518 0
-526 509 0
-526 513 0
-509 -513 526 0
-526 518 476 477 478 0
-526 -518 -476 0
-526 -518 -477 0
-526 -518 -478 0
-527 509 0
-527 514 0
-509 -514 527 0
-527 480 0
-527 518 477 478 0
-527 -518 -477 0
-527 -518 -478 0
-528 509 0
-528 515 0
-509 -515 528 0
-528 476 0
-528 518 478 0
-528 -518 -478 0
-529 509 0
-529 516 0
-509 -516 529 0
-529 477 0
-529 518 0
-530 510 0
-530 513 0
-510 -513 530 0
-530 518 484 485 486 0
-530 -518 -484 0
-530 -518 -485 0
-530 -518 -486 0
-531 510 0
-531 514 0
-510 -514 531 0
-531 488 0
-531 518 485 486 0
-531 -518 -485 0
-531 -518 -486 0
-532 510 0
-532 515 0
-510 -515 532 0
-532 484 0
-532 518 486 0
-532 -518 -486 0
-533 510 0
-533 516 0
-510 -516 533 0
-533 485 0
-533 518 0
-534 511 0
-534 513 0
-511 -513 534 0
-534 518 492 493 494 0
-534 -518 -492 0
-534 -518 -493 0
-534 -518 -494 0
-535 511 0
-535 514 0
-511 -514 535 0
-535 496 0
-535 518 493 494 0
-535 -518 -493 0
-535 -518 -494 0
-536 511 0
-536 515 0
-511 -515 536 0
-536 492 0
-536 518 494 0
-536 -518 -494 0
-537 511 0
-537 516 0
-511 -516 537 0
-537 493 0
-537 518 0
-538 512 0
-538 513 0
-512 -513 538 0
-538 518 500 501 502 0
-538 -518 -500 0
-538 -518 -501 0
-538 -518 -502 0
-539 512 0
-539 514 0
-512 -514 539 0
-539 504 0
-539 518 501 502 0
-539 -518 -501 0
-539 -518 -502 0
-540 512 0
-540 515 0
-512 -515 540 0
-540 500 0
-540 518 502 0
-540 -518 -502 0
-541 512 0
-541 516 0
-512 -516 541 0
-541 501 0
-541 518 0
542 543 544 545 546 0
-542 -543 0
-542 -544 0
-542 -545 0
-542 -546 0
-543 -544 0
-543 -545 0
-543 -546 0
-544 -545 0
-544 -546 0
-545 -546 0
547 548 549 550 0
-547 -548 0
-547 -549 0
-547 -550 0
-548 -549 0
-548 -550 0
-549 -550 0
-551 542 0
-551 547 0
-542 -547 551 0
-551 552 459 460 461 468 469 470 0
-551 -552 -459 0
-551 -552 -460 0
-551 -552 -461 0
-551 -552 -468 0
-551 -552 -469 0
-551 -552 -470 0
-553 542 0
-553 548 0
-542 -548 553 0
-553 464 472 0
-553 552 460 461 469 470 0
-553 -552 -460 0
-553 -552 -461 0
-553 -552 -469 0
-553 -552 -470 0
-554 542 0
-554 549 0
-542 -549 554 0
-554 459 468 0
-554 552 461 470 0
-554 -552 -461 0
-554 -552 -470 0
-555 542 0
-555 550 0
-542 -550 555 0
-555 460 469 0
-555 552 0
-556 543 0
-556 547 0
-543 -547 556 0
-556 552 468 469 470 476 477 478 0
-556 -552 -468 0
-556 -552 -469 0
-556 -552 -470 0
-556 -552 -476 0
-556 -552 -477 0
-556 -552 -478 0
-557 543 0
-557 548 0
-543 -548 557 0
-557 472 480 0
-557 552 469 470 477 478 0
-557 -552 -469 0
-557 -552 -470 0
-557 -552 -477 0
-557 -552 -478 0
-558 543 0
-558 549 0
-543 -549 558 0
-558 468 476 0
-558 552 470 478 0
-558 -552 -470 0
-558 -552 -478 0
-559 543 0
-559 550 0
-543 -550 559 0
-559 469 477 0
-559 552 0
-560 544 0
-560 547 0
-544 -547 560 0
-560 552 476 477 478 484 485 486 0
-560 -552 -476 0
-560 -552 -477 0
-560 -552 -478 0
-560 -552 -484 0
-560 -552 -485 0
-560 -552 -486 0
-561 544 0
-561 548 0
-544 -548 561 0
-561 480 488 0
-561 552 477 478 485 486 0
-561 -552 -477 0
-561 -552 -478 0
-561 -552 -485 0
-561 -552 -486 0
-562 544 0
-562 549 0
-544 -549 562 0
-562 476 484 0
-562 552 478 486 0
-562 -552 -478 0
-562 -552 -486 0
-563 544 0
-563 550 0
-544 -550 563 0
-563 477 485 0
-563 552 0
-564 545 0
-564 547 0
-545 -547 564 0
-564 552 484 485 486 492 493 494 0
-564 -552 -484 0
-564 -552 -485 0
-564 -552 -486 0
-564 -552 -492 0
-564 -552 -493 0
-564 -552 -494 0
-565 545 0
-565 548 0
-545 -548 565 0
-565 488 496 0
-565 552 485 486 493 494 0
-565 -552 -485 0
-565 -552 -486 0
-565 -552 -493 0
-565 -552 -494 0
-566 545 0
-566 549 0
-545 -549 566 0
-566 484 492 0
-566 552 486 494 0
-566 -552 -486 0
-566 -552 -494 0
-567 545 0
-567 550 0
-545 -550 567 0
-567 485 493 0
-567 552 0
-568 546 0
-568 547 0
-546 -547 568 0
-568 552 492 493 494 500 501 502 0
-568 -552 -492 0
-568 -552 -493 0
-568 -552 -494 0
-568 -552 -500 0
-568 -552 -501 0
-568 -552 -502 0
-569 546 0
-569 548 0
-546 -548 569 0
-569 496 504 0
-569 552 493 494 501 502 0
-569 -552 -493 0
-569 -552 -494 0
-569 -552 -501 0
-569 -552 -502 0
-570 546 0
-570 549 0
-546 -549 570 0
-570 492 500 0
-570 552 494 502 0
-570 -552 -494 0
-570 -552 -502 0
-571 546 0
-571 550 0
-546 -550 571 0
-571 493 501 0
-571 552 0
572 573 574 575 0
-572 -573 0
-572 -574 0
-572 -575 0
-573 -574 0
-573 -575 0
-574 -575 0
576 577 578 579 0
-576 -577 0
-576 -578 0
-576 -579 0
-577 -578 0
-577 -579 0
-578 -579 0
-580 572 0
-580 576 0
-572 -576 580 0
-580 581 459 460 461 468 469 470 476 477 478 0
-580 -581 -459 0
-580 -581 -460 0
-580 -581 -461 0
-580 -581 -468 0
-580 -581 -469 0
-580 -581 -470 0
-580 -581 -476 0
-580 -581 -477 0
-580 -581 -478 0
-582 572 0
-582 577 0
-572 -577 582 0
-582 464 472 0
-582 464 480 0
-582 472 480 0
-582 581 460 461 469 470 477 478 0
-582 -581 -460 0
-582 -581 -461 0
-582 -581 -469 0
-582 -581 -470 0
-582 -581 -477 0
-582 -581 -478 0
-583 572 0
-583 578 0
-572 -578 583 0
-583 459 468 0
-583 459 476 0
-583 468 476 0
-583 581 461 470 478 0
-583 -581 -461 0
-583 -581 -470 0
-583 -581 -478 0
-584 572 0
-584 579 0
-572 -579 584 0
-584 460 469 0
-584 460 477 0
-584 469 477 0
-584 581 0
-585 573 0
-585 576 0
-573 -576 585 0
-585 581 468 469 470 476 477 478 484 485 486 0
-585 -581 -468 0
-585 -581 -469 0
-585 -581 -470 0
-585 -581 -476 0
-585 -581 -477 0
-585 -581 -478 0
-585 -581 -484 0
-585 -581 -485 0
-585 -581 -486 0
-586 573 0
-586 577 0
-573 -577 586 0
-586 472 480 0
-586 472 488 0
-586 480 488 0
-586 581 469 470 477 478 485 486 0
-586 -581 -469 0
-586 -581 -470 0
-586 -581 -477 0
-586 -581 -478 0
-586 -581 -485 0
-586 -581 -486 0
-587 573 0
-587 578 0
-573 -578 587 0
-587 468 476 0
-587 468 484 0
-587 476 484 0
-587 581 470 478 486 0
-587 -581 -470 0
-587 -581 -478 0
-587 -581 -486 0
-588 573 0
-588 579 0
-573 -579 588 0
-588 469 477 0
-588 469 485 0
-588 477 485 0
-588 581 0
-589 574 0
-589 576 0
-574 -576 589 0
-589 581 476 477 478 484 485 486 492 493 494 0
-589 -581 -476 0
-589 -581 -477 0
-589 -581 -478 0
-589 -581 -484 0
-589 -581 -485 0
-589 -581 -486 0
-589 -581 -492 0
-589 -581 -493 0
-589 -581 -494 0
-590 574 0
-590 577 0
-574 -577 590 0
-590 480 488 0
-590 480 496 0
-590 488 496 0
-590 581 477 478 485 486 493 494 0
-590 -581 -477 0
-590 -581 -478 0
-590 -581 -485 0
-590 -581 -486 0
-590 -581 -493 0
-590 -581 -494 0
-591 574 0
-591 578 0
-574 -578 591 0
-591 476 484 0
-591 476 492 0
-591 484 492 0
-591 581 478 486 494 0
-591 -581 -478 0
-591 -581 -486 0
-591 -581 -494 0
-592 574 0
-592 579 0
-574 -579 592 0
-592 477 485 0
-592 477 493 0
-592 485 493 0
-592 581 0
-593 575 0
-593 576 0
-575 -576 593 0
-593 581 484 485 486 492 493 494 500 501 502 0
-593 -581 -484 0
-593 -581 -485 0
-593 -581 -486 0
-593 -581 -492 0
-593 -581 -493 0
-593 -581 -494 0
-593 -581 -500 0
-593 -581 -501 0
-593 -581 -502 0
-594 575 0
-594 577 0
-575 -577 594 0
-594 488 496 0
-594 488 504 0
-594 496 504 0
-594 581 485 486 493 494 501 502 0
-594 -581 -485 0
-594 -581 -486 0
-594 -581 -493 0
-594 -581 -494 0
-594 -581 -501 0
-594 -581 -502 0
-595 575 0
-595 578 0
-575 -578 595 0
-595 484 492 0
-595 484 500 0
-595 492 500 0
-595 581 486 494 502 0
-595 -581 -486 0
-595 -581 -494 0
-595 -581 -502 0
-596 575 0
-596 579 0
-575 -579 596 0
-596 485 493 0
-596 485 501 0
-596 493 501 0
-596 581 0
-464 458 517 551 580 0
-458 464 0
-517 464 0
-551 464 0
-580 464 0
-458 -517 0
-458 -551 0
-458 -580 0
-517 -551 0
-517 -580 0
-551 -580 0
-459 463 519 553 582 0
-463 459 0
-519 459 0
-553 459 0
-582 459 0
-463 -519 0
-463 -553 0
-463 -582 0
-519 -553 0
-519 -582 0
-553 -582 0
-460 465 520 554 583 0
-465 460 0
-520 460 0
-554 460 0
-583 460 0
-465 -520 0
-465 -554 0
-465 -583 0
-520 -554 0
-520 -583 0
-554 -583 0
-461 466 521 555 584 0
-466 461 0
-521 461 0
-555 461 0
-584 461 0
-466 -521 0
-466 -555 0
-466 -584 0
-521 -555 0
-521 -584 0
-555 -584 0
-472 467 522 551 556 580 585 0
-467 472 0
-522 472 0
-551 472 0
-556 472 0
-580 472 0
-585 472 0
-467 -522 0
-467 -551 0
-467 -556 0
-467 -580 0
-467 -585 0
-522 -551 0
-522 -556 0
-522 -580 0
-522 -585 0
-551 -556 0
-551 -580 0
-551 -585 0
-556 -580 0
-556 -585 0
-580 -585 0
-468 471 523 553 557 582 586 0
-471 468 0
-523 468 0
-553 468 0
-557 468 0
-582 468 0
-586 468 0
-471 -523 0
-471 -553 0
-471 -557 0
-471 -582 0
-471 -586 0
-523 -553 0
-523 -557 0
-523 -582 0
-523 -586 0
-553 -557 0
-553 -582 0
-553 -586 0
-557 -582 0
-557 -586 0
-582 -586 0
-469 473 524 554 558 583 587 0
-473 469 0
-524 469 0
-554 469 0
-558 469 0
-583 469 0
-587 469 0
-473 -524 0
-473 -554 0
-473 -558 0
-473 -583 0
-473 -587 0
-524 -554 0
-524 -558 0
-524 -583 0
-524 -587 0
-554 -558 0
-554 -583 0
-554 -587 0
-558 -583 0
-558 -587 0
-583 -587 0
-470 474 525 555 559 584 588 0
-474 470 0
-525 470 0
-555 470 0
-559 470 0
-584 470 0
-588 470 0
-474 -525 0
-474 -555 0
-474 -559 0
-474 -584 0
-474 -588 0
-525 -555 0
-525 -559 0
-525 -584 0
-525 -588 0
-555 -559 0
-555 -584 0
-555 -588 0
-559 -584 0
-559 -588 0
-584 -588 0
-480 475 526 556 560 580 585 589 0
-475 480 0
-526 480 0
-556 480 0
-560 480 0
-580 480 0
-585 480 0
-589 480 0
-475 -526 0
-475 -556 0
-475 -560 0
-475 -580 0
-475 -585 0
-475 -589 0
-526 -556 0
-526 -560 0
-526 -580 0
-526 -585 0
-526 -589 0
-556 -560 0
-556 -580 0
-556 -585 0
-556 -589 0
-560 -580 0
-560 -585 0
-560 -589 0
-580 -585 0
-580 -589 0
-585 -589 0
-476 479 527 557 561 582 586 590 0
-479 476 0
-527 476 0
-557 476 0
-561 476 0
-582 476 0
-586 476 0
-590 476 0
-479 -527 0
-479 -557 0
-479 -561 0
-479 -582 0
-479 -586 0
-479 -590 0
-527 -557 0
-527 -561 0
-527 -582 0
-527 -586 0
-527 -590 0
-557 -561 0
-557 -582 0
-557 -586 0
-557 -590 0
-561 -582 0
-561 -586 0
-561 -590 0
-582 -586 0
-582 -590 0
-586 -590 0
-477 481 528 558 562 583 587 591 0
-481 477 0
-528 477 0
-558 477 0
-562 477 0
-583 477 0
-587 477 0
-591 477 0
-481 -528 0
-481 -558 0
-481 -562 0
-481 -583 0
-481 -587 0
-481 -591 0
-528 -558 0
-528 -562 0
-528 -583 0
-528 -587 0
-528 -591 0
-558 -562 0
-558 -583 0
-558 -587 0
-558 -591 0
-562 -583 0
-562 -587 0
-562 -591 0
-583 -587 0
-583 -591 0
-587 -591 0
-478 482 529 559 563 584 588 592 0
-482 478 0
-529 478 0
-559 478 0
-563 478 0
-584 478 0
-588 478 0
-592 478 0
-482 -529 0
-482 -559 0
-482 -563 0
-482 -584 0
-482 -588 0
-482 -592 0
-529 -559 0
-529 -563 0
-529 -584 0
-529 -588 0
-529 -592 0
-559 -563 0
-559 -584 0
-559 -588 0
-559 -592 0
-563 -584 0
-563 -588 0
-563 -592 0
-584 -588 0
-584 -592 0
-588 -592 0
-488 483 530 560 564 585 589 593 0
-483 488 0
-530 488 0
-560 488 0
-564 488 0
-585 488 0
-589 488 0
-593 488 0
-483 -530 0
-483 -560 0
-483 -564 0
-483 -585 0
-483 -589 0
-483 -593 0
-530 -560 0
-530 -564 0
-530 -585 0
-530 -589 0
-530 -593 0
-560 -564 0
-560 -585 0
-560 -589 0
-560 -593 0
-564 -585 0
-564 -589 0
-564 -593 0
-585 -589 0
-585 -593 0
-589 -593 0
-484 487 531 561 565 586 590 594 0
-487 484 0
-531 484 0
-561 484 0
-565 484 0
-586 484 0
-590 484 0
-594 484 0
-487 -531 0
-487 -561 0
-487 -565 0
-487 -586 0
-487 -590 0
-487 -594 0
-531 -561 0
-531 -565 0
-531 -586 0
-531 -590 0
-531 -594 0
-561 -565 0
-561 -586 0
-561 -590 0
-561 -594 0
-565 -586 0
-565 -590 0
-565 -594 0
-586 -590 0
-586 -594 0
-590 -594 0
-485 489 532 562 566 587 591 595 0
-489 485 0
-532 485 0
-562 485 0
-566 485 0
-587 485 0
-591 485 0
-595 485 0
-489 -532 0
-489 -562 0
-489 -566 0
-489 -587 0
-489 -591 0
-489 -595 0
-532 -562 0
-532 -566 0
-532 -587 0
-532 -591 0
-532 -595 0
-562 -566 0
-562 -587 0
-562 -591 0
-562 -595 0
-566 -587 0
-566 -591 0
-566 -595 0
-587 -591 0
-587 -595 0
-591 -595 0
-486 490 533 563 567 588 592 596 0
-490 486 0
-533 486 0
-563 486 0
-567 486 0
-588 486 0
-592 486 0
-596 486 0
-490 -533 0
-490 -563 0
-490 -567 0
-490 -588 0
-490 -592 0
-490 -596 0
-533 -563 0
-533 -567 0
-533 -588 0
-533 -592 0
-533 -596 0
-563 -567 0
-563 -588 0
-563 -592 0
-563 -596 0
-567 -588 0
-567 -592 0
-567 -596 0
-588 -592 0
-588 -596 0
-592 -596 0
-496 491 534 564 568 589 593 0
-491 496 0
-534 496 0
-564 496 0
-568 496 0
-589 496 0
-593 496 0
-491 -534 0
-491 -564 0
-491 -568 0
-491 -589 0
-491 -593 0
-534 -564 0
-534 -568 0
-534 -589 0
-534 -593 0
-564 -568 0
-564 -589 0
-564 -593 0
-568 -589 0
-568 -593 0
-589 -593 0
-492 495 535 565 569 590 594 0
-495 492 0
-535 492 0
-565 492 0
-569 492 0
-590 492 0
-594 492 0
-495 -535 0
-495 -565 0
-495 -569 0
-495 -590 0
-495 -594 0
-535 -565 0
-535 -569 0
-535 -590 0
-535 -594 0
-565 -569 0
-565 -590 0
-565 -594 0
-569 -590 0
-569 -594 0
-590 -594 0
-493 497 536 566 570 591 595 0
-497 493 0
-536 493 0
-566 493 0
-570 493 0
-591 493 0
-595 493 0
-497 -536 0
-497 -566 0
-497 -570 0
-497 -591 0
-497 -595 0
-536 -566 0
-536 -570 0
-536 -591 0
-536 -595 0
-566 -570 0
-566 -591 0
-566 -595 0
-570 -591 0
-570 -595 0
-591 -595 0
-494 498 537 567 571 592 596 0
-498 494 0
-537 494 0
-567 494 0
-571 494 0
-592 494 0
-596 494 0
-498 -537 0
-498 -567 0
-498 -571 0
-498 -592 0
-498 -596 0
-537 -567 0
-537 -571 0
-537 -592 0
-537 -596 0
-567 -571 0
-567 -592 0
-567 -596 0
-571 -592 0
-571 -596 0
-592 -596 0
-504 499 538 568 593 0
-499 504 0
-538 504 0
-568 504 0
-593 504 0
-499 -538 0
-499 -568 0
-499 -593 0
-538 -568 0
-538 -593 0
-568 -593 0
-500 503 539 569 594 0
-503 500 0
-539 500 0
-569 500 0
-594 500 0
-503 -539 0
-503 -569 0
-503 -594 0
-539 -569 0
-539 -594 0
-569 -594 0
-501 505 540 570 595 0
-505 501 0
-540 501 0
-570 501 0
-595 501 0
-505 -540 0
-505 -570 0
-505 -595 0
-540 -570 0
-540 -595 0
-570 -595 0
-502 506 541 571 596 0
-506 502 0
-541 502 0
-571 502 0
-596 502 0
-506 -541 0
-506 -571 0
-506 -596 0
-541 -571 0
-541 -596 0
-571 -596 0
597 598 599 600 601 602 0
-597 -598 0
-597 -599 0
-597 -600 0
-597 -601 0
-597 -602 0
-598 -599 0
-598 -600 0
-598 -601 0
-598 -602 0
-599 -600 0
-599 -601 0
-599 -602 0
-600 -601 0
-600 -602 0
-601 -602 0
603 604 605 606 0
-603 -604 0
-603 -605 0
-603 -606 0
-604 -605 0
-604 -606 0
-605 -606 0
-607 597 0
-607 603 0
-597 -603 607 0
-607 611 608 609 610 0
-607 -611 -608 0
-607 -611 -609 0
-607 -611 -610 0
-612 597 0
-612 604 0
-597 -604 612 0
-612 613 0
-612 611 609 610 0
-612 -611 -609 0
-612 -611 -610 0
-614 597 0
-614 605 0
-597 -605 614 0
-614 608 0
-614 611 610 0
-614 -611 -610 0
-615 597 0
-615 606 0
-597 -606 615 0
-615 609 0
-615 611 0
-616 598 0
-616 603 0
-598 -603 616 0
-616 611 617 618 619 0
-616 -611 -617 0
-616 -611 -618 0
-616 -611 -619 0
-620 598 0
-620 604 0
-598 -604 620 0
-620 621 0
-620 611 618 619 0
-620 -611 -618 0
-620 -611 -619 0
-622 598 0
-622 605 0
-598 -605 622 0
-622 617 0
-622 611 619 0
-622 -611 -619 0
-623 598 0
-623 606 0
-598 -606 623 0
-623 618 0
-623 611 0
-624 599 0
-624 603 0
-599 -603 624 0
-624 611 625 626 627 0
-624 -611 -625 0
-624 -611 -626 0
-624 -611 -627 0
-628 599 0
-628 604 0
-599 -604 628 0
-628 629 0
-628 611 626 627 0
-628 -611 -626 0
-628 -611 -627 0
-630 599 0
-630 605 0
-599 -605 630 0
-630 625 0
-630 611 627 0
-630 -611 -627 0
-631 599 0
-631 606 0
-599 -606 631 0
-631 626 0
-631 611 0
-632 600 0
-632 603 0
-600 -603 632 0
-632 611 633 634 635 0
-632 -611 -633 0
-632 -611 -634 0
-632 -611 -635 0
-636 600 0
-636 604 0
-600 -604 636 0
-636 637 0
-636 611 634 635 0
-636 -611 -634 0
-636 -611 -635 0
-638 600 0
-638 605 0
-600 -605 638 0
-638 633 0
-638 611 635 0
-638 -611 -635 0
-639 600 0
-639 606 0
-600 -606 639 0
-639 634 0
-639 611 0
-640 601 0
-640 603 0
-601 -603 640 0
-640 611 641 642 643 0
-640 -611 -641 0
-640 -611 -642 0
-640 -611 -643 0
-644 601 0
-644 604 0
-601 -604 644 0
-644 645 0
-644 611 642 643 0
-644 -611 -642 0
-644 -611 -643 0
-646 601 0
-646 605 0
-601 -605 646 0
-646 641 0
-646 611 643 0
-646 -611 -643 0
-647 601 0
-647 606 0
-601 -606 647 0
-647 642 0
-647 611 0
-648 602 0
-648 603 0
-602 -603 648 0
-648 611 649 650 651 0
-648 -611 -649 0
-648 -611 -650 0
-648 -611 -651 0
-652 602 0
-652 604 0
-602 -604 652 0
-652 653 0
-652 611 650 651 0
-652 -611 -650 0
-652 -611 -651 0
-654 602 0
-654 605 0
-602 -605 654 0
-654 649 0
-654 611 651 0
-654 -611 -651 0
-655 602 0
-655 606 0
-602 -606 655 0
-655 650 0
-655 611 0
656 657 658 659 660 661 0
-656 -657 0
-656 -658 0
-656 -659 0
-656 -660 0
-656 -661 0
-657 -658 0
-657 -659 0
-657 -660 0
-657 -661 0
-658 -659 0
-658 -660 0
-658 -661 0
-659 -660 0
-659 -661 0
-660 -661 0
662 663 664 665 0
-662 -663 0
-662 -664 0
-662 -665 0
-663 -664 0
-663 -665 0
-664 -665 0
-666 656 0
-666 662 0
-656 -662 666 0
-666 667 608 609 610 0
-666 -667 -608 0
-666 -667 -609 0
-666 -667 -610 0
-668 656 0
-668 663 0
-656 -663 668 0
-668 613 0
-668 667 609 610 0
-668 -667 -609 0
-668 -667 -610 0
-669 656 0
-669 664 0
-656 -664 669 0
-669 608 0
-669 667 610 0
-669 -667 -610 0
-670 656 0
-670 665 0
-656 -665 670 0
-670 609 0
-670 667 0
-671 657 0
-671 662 0
-657 -662 671 0
-671 667 617 618 619 0
-671 -667 -617 0
-671 -667 -618 0
-671 -667 -619 0
-672 657 0
-672 663 0
-657 -663 672 0
-672 621 0
-672 667 618 619 0
-672 -667 -618 0
-672 -667 -619 0
-673 657 0
-673 664 0
-657 -664 673 0
-673 617 0
-673 667 619 0
-673 -667 -619 0
-674 657 0
-674 665 0
-657 -665 674 0
-674 618 0
-674 667 0
-675 658 0
-675 662 0
-658 -662 675 0
-675 667 625 626 627 0
-675 -667 -625 0
-675 -667 -626 0
-675 -667 -627 0
-676 658 0
-676 663 0
-658 -663 676 0
-676 629 0
-676 667 626 627 0
-676 -667 -626 0
-676 -667 -627 0
-677 658 0
-677 664 0
-658 -664 677 0
-677 625 0
-677 667 627 0
-677 -667 -627 0
-678 658 0
-678 665 0
-658 -665 678 0
-678 626 0
-678 667 0
-679 659 0
-679 662 0
-659 -662 679 0
-679 667 633 634 635 0
-679 -667 -633 0
-679 -667 -634 0
-679 -667 -635 0
-680 659 0
-680 663 0
-659 -663 680 0
-680 637 0
-680 667 634 635 0
-680 -667 -634 0
-680 -667 -635 0
-681 659 0
-681 664 0
-659 -664 681 0
-681 633 0
-681 667 635 0
-681 -667 -635 0
-682 659 0
-682 665 0
-659 -665 682 0
-682 634 0
-682 667 0
-683 660 0
-683 662 0
-660 -662 683 0
-683 667 641 642 643 0
-683 -667 -641 0
-683 -667 -642 0
-683 -667 -643 0
-684 660 0
-684 663 0
-660 -663 684 0
-684 645 0
-684 667 642 643 0
-684 -667 -642 0
-684 -667 -643 0
-685 660 0
-685 664 0
-660 -664 685 0
-685 641 0
-685 667 643 0
-685 -667 -643 0
-686 660 0
-686 665 0
-660 -665 686 0
-686 642 0
-686 667 0
-687 661 0
-687 662 0
-661 -662 687 0
-687 667 649 650 651 0
-687 -667 -649 0
-687 -667 -650 0
-687 -667 -651 0
-688 661 0
-688 663 0
-661 -663 688 0
-688 653 0
-688 667 650 651 0
-688 -667 -650 0
-688 -667 -651 0
-689 661 0
-689 664 0
-661 -664 689 0
-689 649 0
-689 667 651 0
-689 -667 -651 0
-690 661 0
-690 665 0
-661 -665 690 0
-690 650 0
-690 667 0
691 692 693 694 695 0
-691 -692 0
-691 -693 0
-691 -694 0
-691 -695 0
-692 -693 0
-692 -694 0
-692 -695 0
-693 -694 0
-693 -695 0
-694 -695 0
696 697 698 699 0
-696 -697 0
-696 -698 0
-696 -699 0
-697 -698 0
-697 -699 0
-698 -699 0
-700 691 0
-700 696 0
-691 -696 700 0
-700 701 608 609 610 617 618 619 0
-700 -701 -608 0
-700 -701 -609 0
-700 -701 -610 0
-700 -701 -617 0
-700 -701 -618 0
-700 -701 -619 0
-702 691 0
-702 697 0
-691 -697 702 0
-702 613 621 0
-702 701 609 610 618 619 0
-702 -701 -609 0
-702 -701 -610 0
-702 -701 -618 0
-702 -701 -619 0
-703 691 0
-703 698 0
-691 -698 703 0
-703 608 617 0
-703 701 610 619 0
-703 -701 -610 0
-703 -701 -619 0
-704 691 0
-704 699 0
-691 -699 704 0
-704 609 618 0
-704 701 0
-705 692 0
-705 696 0
-692 -696 705 0
-705 701 617 618 619 625 626 627 0
-705 -701 -617 0
-705 -701 -618 0
-705 -701 -619 0
-705 -701 -625 0
-705 -701 -626 0
-705 -701 -627 0
-706 692 0
-706 697 0
-692 -697 706 0
-706 621 629 0
-706 701 618 619 626 627 0
-706 -701 -618 0
-706 -701 -619 0
-706 -701 -626 0
-706 -701 -627 0
-707 692 0
-707 698 0
-692 -698 707 0
-707 617 625 0
-707 701 619 627 0
-707 -701 -619 0
-707 -701 -627 0
-708 692 0
-708 699 0
-692 -699 708 0
-708 618 626 0
-708 701 0
-709 693 0
-709 696 0
-693 -696 709 0
-709 701 625 626 627 633 634 635 0
-709 -701 -625 0
-709 -701 -626 0
-709 -701 -627 0
-709 -701 -633 0
-709 -701 -634 0
-709 -701 -635 0
-710 693 0
-710 697 0
-693 -697 710 0
-710 629 637 0
-710 701 626 627 634 635 0
-710 -701 -626 0
-710 -701 -627 0
-710 -701 -634 0
-710 -701 -635 0
-711 693 0
-711 698 0
-693 -698 711 0
-711 625 633 0
-711 701 627 635 0
-711 -701 -627 0
-711 -701 -635 0
-712 693 0
-712 699 0
-693 -699 712 0
-712 626 634 0
-712 701 0
-713 694 0
-713 696 0
-694 -696 713 0
-713 701 633 634 635 641 642 643 0
-713 -701 -633 0
-713 -701 -634 0
-713 -701 -635 0
-713 -701 -641 0
-713 -701 -642 0
-713 -701 -643 0
-714 694 0
-714 697 0
-694 -697 714 0
-714 637 645 0
-714 701 634 635 642 643 0
-714 -701 -634 0
-714 -701 -635 0
-714 -701 -642 0
-714 -701 -643 0
-715 694 0
-715 698 0
-694 -698 715 0
-715 633 641 0
-715 701 635 643 0
-715 -701 -635 0
-715 -701 -643 0
-716 694 0
-716 699 0
-694 -699 716 0
-716 634 642 0
-716 701 0
-717 695 0
-717 696 0
-695 -696 717 0
-717 701 641 642 643 649 650 651 0
-717 -701 -641 0
-717 -701 -642 0
-717 -701 -643 0
-717 -701 -649 0
-717 -701 -650 0
-717 -701 -651 0
-718 695 0
-718 697 0
-695 -697 718 0
-718 645 653 0
-718 701 642 643 650 651 0
-718 -701 -642 0
-718 -701 -643 0
-718 -701 -650 0
-718 -701 -651 0
-719 695 0
-719 698 0
-695 -698 719 0
-719 641 649 0
-719 701 643 651 0
-719 -701 -643 0
-719 -701 -651 0
-720 695 0
-720 699 0
-695 -699 720 0
-720 642 650 0
-720 701 0
721 722 723 724 0
-721 -722 0
-721 -723 0
-721 -724 0
-722 -723 0
-722 -724 0
-723 -724 0
725 726 727 728 0
-725 -726 0
-725 -727 0
-725 -728 0
-726 -727 0
-726 -728 0
-727 -728 0
-729 721 0
-729 725 0
-721 -725 729 0
-729 730 608 609 610 617 618 619 625 626 627 0
-729 -730 -608 0
-729 -730 -609 0
-729 -730 -610 0
-729 -730 -617 0
-729 -730 -618 0
-729 -730 -619 0
-729 -730 -625 0
-729 -730 -626 0
-729 -730 -627 0
-731 721 0
-731 726 0
-721 -726 731 0
-731 613 621 0
-731 613 629 0
-731 621 629 0
-731 730 609 610 618 619 626 627 0
-731 -730 -609 0
-731 -730 -610 0
-731 -730 -618 0
-731 -730 -619 0
-731 -730 -626 0
-731 -730 -627 0
-732 721 0
-732 727 0
-721 -727 732 0
-732 608 617 0
-732 608 625 0
-732 617 625 0
-732 730 610 619 627 0
-732 -730 -610 0
-732 -730 -619 0
-732 -730 -627 0
-733 721 0
-733 728 0
-721 -728 733 0
-733 609 618 0
-733 609 626 0
-733 618 626 0
-733 730 0
-734 722 0
-734 725 0
-722 -725 734 0
-734 730 617 618 619 625 626 627 633 634 635 0
-734 -730 -617 0
-734 -730 -618 0
-734 -730 -619 0
-734 -730 -625 0
-734 -730 -626 0
-734 -730 -627 0
-734 -730 -633 0
-734 -730 -634 0
-734 -730 -635 0
-735 722 0
-735 726 0
-722 -726 735 0
-735 621 629 0
-735 621 637 0
-735 629 637 0
-735 730 618 619 626 627 634 635 0
-735 -730 -618 0
-735 -730 -619 0
-735 -730 -626 0
-735 -730 -627 0
-735 -730 -634 0
-735 -730 -635 0
-736 722 0
-736 727 0
-722 -727 736 0
-736 617 625 0
-736 617 633 0
-736 625 633 0
-736 730 619 627 635 0
-736 -730 -619 0
-736 -730 -627 0
-736 -730 -635 0
-737 722 0
-737 728 0
-722 -728 737 0
-737 618 626 0
-737 618 634 0
-737 626 634 0
-737 730 0
-738 723 0
-738 725 0
-723 -725 738 0
-738 730 625 626 627 633 634 635 641 642 643 0
-738 -730 -625 0
-738 -730 -626 0
-738 -730 -627 0
-738 -730 -633 0
-738 -730 -634 0
-738 -730 -635 0
-738 -730 -641 0
-738 -730 -642 0
-738 -730 -643 0
-739 723 0
-739 726 0
-723 -726 739 0
-739 629 637 0
-739 629 645 0
-739 637 645 0
-739 730 626 627 634 635 642 643 0
-739 -730 -626 0
-739 -730 -627 0
-739 -730 -634 0
-739 -730 -635 0
-739 -730 -642 0
-739 -730 -643 0
-740 723 0
-740 727 0
-723 -727 740 0
-740 625 633 0
-740 625 641 0
-740 633 641 0
-740 730 627 635 643 0
-740 -730 -627 0
-740 -730 -635 0
-740 -730 -643 0
-741 723 0
-741 728 0
-723 -728 741 0
-741 626 634 0
-741 626 642 0
-741 634 642 0
-741 730 0
-742 724 0
-742 725 0
-724 -725 742 0
-742 730 633 634 635 641 642 643 649 650 651 0
-742 -730 -633 0
-742 -730 -634 0
-742 -730 -635 0
-742 -730 -641 0
-742 -730 -642 0
-742 -730 -643 0
-742 -730 -649 0
-742 -730 -650 0
-742 -730 -651 0
-743 724 0
-743 726 0
-724 -726 743 0
-743 637 645 0
-743 637 653 0
-743 645 653 0
-743 730 634 635 642 643 650 651 0
-743 -730 -634 0
-743 -730 -635 0
-743 -730 -642 0
-743 -730 -643 0
-743 -730 -650 0
-743 -730 -651 0
-744 724 0
-744 727 0
-724 -727 744 0
-744 633 641 0
-744 633 649 0
-744 641 649 0
-744 730 635 643 651 0
-744 -730 -635 0
-744 -730 -643 0
-744 -730 -651 0
-745 724 0
-745 728 0
-724 -728 745 0
-745 634 642 0
-745 634 650 0
-745 642 650 0
-745 730 0
-613 607 666 700 729 0
-607 613 0
-666 613 0
-700 613 0
-729 613 0
-607 -666 0
-607 -700 0
-607 -729 0
-666 -700 0
-666 -729 0
-700 -729 0
-608 612 668 702 731 0
-612 608 0
-668 608 0
-702 608 0
-731 608 0
-612 -668 0
-612 -702 0
-612 -731 0
-668 -702 0
-668 -731 0
-702 -731 0
-609 614 669 703 732 0
-614 609 0
-669 609 0
-703 609 0
-732 609 0
-614 -669 0
-614 -703 0
-614 -732 0
-669 -703 0
-669 -732 0
-703 -732 0
-610 615 670 704 733 0
-615 610 0
-670 610 0
-704 610 0
-733 610 0
-615 -670 0
-615 -704 0
-615 -733 0
-670 -704 0
-670 -733 0
-704 -733 0
-621 616 671 700 705 729 734 0
-616 621 0
-671 621 0
-700 621 0
-705 621 0
-729 621 0
-734 621 0
-616 -671 0
-616 -700 0
-616 -705 0
-616 -729 0
-616 -734 0
-671 -700 0
-671 -705 0
-671 -729 0
-671 -734 0
-700 -705 0
-700 -729 0
-700 -734 0
-705 -729 0
-705 -734 0
-729 -734 0
-617 620 672 702 706 731 735 0
-620 617 0
-672 617 0
-702 617 0
-706 617 0
-731 617 0
-735 617 0
-620 -672 0
-620 -702 0
-620 -706 0
-620 -731 0
-620 -735 0
-672 -702 0
-672 -706 0
-672 -731 0
-672 -735 0
-702 -706 0
-702 -731 0
-702 -735 0
-706 -731 0
-706 -735 0
-731 -735 0
-618 622 673 703 707 732 736 0
-622 618 0
-673 618 0
-703 618 0
-707 618 0
-732 618 0
-736 618 0
-622 -673 0
-622 -703 0
-622 -707 0
-622 -732 0
-622 -736 0
-673 -703 0
-673 -707 0
-673 -732 0
-673 -736 0
-703 -707 0
-703 -732 0
-703 -736 0
-707 -732 0
-707 -736 0
-732 -736 0
-619 623 674 704 708 733 737 0
-623 619 0
-674 619 0
-704 619 0
-708 619 0
-733 619 0
-737 619 0
-623 -674 0
-623 -704 0
-623 -708 0
-623 -733 0
-623 -737 0
-674 -704 0
-674 -708 0
-674 -733 0
-674 -737 0
-704 -708 0
-704 -733 0
-704 -737 0
-708 -733 0
-708 -737 0
-733 -737 0
-629 624 675 705 709 729 734 738 0
-624 629 0
-675 629 0
-705 629 0
-709 629 0
-729 629 0
-734 629 0
-738 629 0
-624 -675 0
-624 -705 0
-624 -709 0
-624 -729 0
-624 -734 0
-624 -738 0
-675 -705 0
-675 -709 0
-675 -729 0
-675 -734 0
-675 -738 0
-705 -709 0
-705 -729 0
-705 -734 0
-705 -738 0
-709 -729 0
-709 -734 0
-709 -738 0
-729 -734 0
-729 -738 0
-734 -738 0
-625 628 676 706 710 731 735 739 0
-628 625 0
-676 625 0
-706 625 0
-710 625 0
-731 625 0
-735 625 0
-739 625 0
-628 -676 0
-628 -706 0
-628 -710 0
-628 -731 0
-628 -735 0
-628 -739 0
-676 -706 0
-676 -710 0
-676 -731 0
-676 -735 0
-676 -739 0
-706 -710 0
-706 -731 0
-706 -735 0
-706 -739 0
-710 -731 0
-710 -735 0
-710 -739 0
-731 -735 0
-731 -739 0
-735 -739 0
-626 630 677 707 711 732 736 740 0
-630 626 0
-677 626 0
-707 626 0
-711 626 0
-732 626 0
-736 626 0
-740 626 0
-630 -677 0
-630 -707 0
-630 -711 0
-630 -732 0
-630 -736 0
-630 -740 0
-677 -707 0
-677 -711 0
-677 -732 0
-677 -736 0
-677 -740 0
-707 -711 0
-707 -732 0
-707 -736 0
-707 -740 0
-711 -732 0
-711 -736 0
-711 -740 0
-732 -736 0
-732 -740 0
-736 -740 0
-627 631 678 708 712 733 737 741 0
-631 627 0
-678 627 0
-708 627 0
-712 627 0
-733 627 0
-737 627 0
-741 627 0
-631 -678 0
-631 -708 0
-631 -712 0
-631 -733 0
-631 -737 0
-631 -741 0
-678 -708 0
-678 -712 0
-678 -733 0
-678 -737 0
-678 -741 0
-708 -712 0
-708 -733 0
-708 -737 0
-708 -741 0
-712 -733 0
-712 -737 0
-712 -741 0
-733 -737 0
-733 -741 0
-737 -741 0
-637 632 679 709 713 734 738 742 0
-632 637 0
-679 637 0
-709 637 0
-713 637 0
-734 637 0
-738 637 0
-742 637 0
-632 -679 0
-632 -709 0
-632 -713 0
-632 -734 0
-632 -738 0
-632 -742 0
-679 -709 0
-679 -713 0
-679 -734 0
-679 -738 0
-679 -742 0
-709 -713 0
-709 -734 0
-709 -738 0
-709 -742 0
-713 -734 0
-713 -738 0
-713 -742 0
-734 -738 0
-734 -742 0
-738 -742 0
-633 636 680 710 714 735 739 743 0
-636 633 0
-680 633 0
-710 633 0
-714 633 0
-735 633 0
-739 633 0
-743 633 0
-636 -680 0
-636 -710 0
-636 -714 0
-636 -735 0
-636 -739 0
-636 -743 0
-680 -710 0
-680 -714 0
-680 -735 0
-680 -739 0
-680 -743 0
-710 -714 0
-710 -735 0
-710 -739 0
-710 -743 0
-714 -735 0
-714 -739 0
-714 -743 0
-735 -739 0
-735 -743 0
-739 -743 0
-634 638 681 711 715 736 740 744 0
-638 634 0
-681 634 0
-711 634 0
-715 634 0
-736 634 0
-740 634 0
-744 634 0
-638 -681 0
-638 -711 0
-638 -715 0
-638 -736 0
-638 -740 0
-638 -744 0
-681 -711 0
-681 -715 0
-681 -736 0
-681 -740 0
-681 -744 0
-711 -715 0
-711 -736 0
-711 -740 0
-711 -744 0
-715 -736 0
-715 -740 0
-715 -744 0
-736 -740 0
-736 -744 0
-740 -744 0
-635 639 682 712 716 737 741 745 0
-639 635 0
-682 635 0
-712 635 0
-716 635 0
-737 635 0
-741 635 0
-745 635 0
-639 -682 0
-639 -712 0
-639 -716 0
-639 -737 0
-639 -741 0
-639 -745 0
-682 -712 0
-682 -716 0
-682 -737 0
-682 -741 0
-682 -745 0
-712 -716 0
-712 -737 0
-712 -741 0
-712 -745 0
-716 -737 0
-716 -741 0
-716 -745 0
-737 -741 0
-737 -745 0
-741 -745 0
-645 640 683 713 717 738 742 0
-640 645 0
-683 645 0
-713 645 0
-717 645 0
-738 645 0
-742 645 0
-640 -683 0
-640 -713 0
-640 -717 0
-640 -738 0
-640 -742 0
-683 -713 0
-683 -717 0
-683 -738 0
-683 -742 0
-713 -717 0
-713 -738 0
-713 -742 0
-717 -738 0
-717 -742 0
-738 -742 0
-641 644 684 714 718 739 743 0
-644 641 0
-684 641 0
-714 641 0
-718 641 0
-739 641 0
-743 641 0
-644 -684 0
-644 -714 0
-644 -718 0
-644 -739 0
-644 -743 0
-684 -714 0
-684 -718 0
-684 -739 0
-684 -743 0
-714 -718 0
-714 -739 0
-714 -743 0
-718 -739 0
-718 -743 0
-739 -743 0
-642 646 685 715 719 740 744 0
-646 642 0
-685 642 0
-715 642 0
-719 642 0
-740 642 0
-744 642 0
-646 -685 0
-646 -715 0
-646 -719 0
-646 -740 0
-646 -744 0
-685 -715 0
-685 -719 0
-685 -740 0
-685 -744 0
-715 -719 0
-715 -740 0
-715 -744 0
-719 -740 0
-719 -744 0
-740 -744 0
-643 647 686 716 720 741 745 0
-647 643 0
-686 643 0
-716 643 0
-720 643 0
-741 643 0
-745 643 0
-647 -686 0
-647 -716 0
-647 -720 0
-647 -741 0
-647 -745 0
-686 -716 0
-686 -720 0
-686 -741 0
-686 -745 0
-716 -720 0
-716 -741 0
-716 -745 0
-720 -741 0
-720 -745 0
-741 -745 0
-653 648 687 717 742 0
-648 653 0
-687 653 0
-717 653 0
-742 653 0
-648 -687 0
-648 -717 0
-648 -742 0
-687 -717 0
-687 -742 0
-717 -742 0
-649 652 688 718 743 0
-652 649 0
-688 649 0
-718 649 0
-743 649 0
-652 -688 0
-652 -718 0
-652 -743 0
-688 -718 0
-688 -743 0
-718 -743 0
-650 654 689 719 744 0
-654 650 0
-689 650 0
-719 650 0
-744 650 0
-654 -689 0
-654 -719 0
-654 -744 0
-689 -719 0
-689 -744 0
-719 -744 0
-651 655 690 720 745 0
-655 651 0
-690 651 0
-720 651 0
-745 651 0
-655 -690 0
-655 -720 0
-655 -745 0
-690 -720 0
-690 -745 0
-720 -745 0
746 747 748 749 750 751 0
-746 -747 0
-746 -748 0
-746 -749 0
-746 -750 0
-746 -751 0
-747 -748 0
-747 -749 0
-747 -750 0
-747 -751 0
-748 -749 0
-748 -750 0
-748 -751 0
-749 -750 0
-749 -751 0
-750 -751 0
752 753 754 755 0
-752 -753 0
-752 -754 0
-752 -755 0
-753 -754 0
-753 -755 0
-754 -755 0
-756 746 0
-756 752 0
-746 -752 756 0
-756 760 757 758 759 0
-756 -760 -757 0
-756 -760 -758 0
-756 -760 -759 0
-761 746 0
-761 753 0
-746 -753 761 0
-761 762 0
-761 760 758 759 0
-761 -760 -758 0
-761 -760 -759 0
-763 746 0
-763 754 0
-746 -754 763 0
-763 757 0
-763 760 759 0
-763 -760 -759 0
-764 746 0
-764 755 0
-746 -755 764 0
-764 758 0
-764 760 0
-765 747 0
-765 752 0
-747 -752 765 0
-765 760 766 767 768 0
-765 -760 -766 0
-765 -760 -767 0
-765 -760 -768 0
-769 747 0
-769 753 0
-747 -753 769 0
-769 770 0
-769 760 767 768 0
-769 -760 -767 0
-769 -760 -768 0
-771 747 0
-771 754 0
-747 -754 771 0
-771 766 0
-771 760 768 0
-771 -760 -768 0
-772 747 0
-772 755 0
-747 -755 772 0
-772 767 0
-772 760 0
-773 748 0
-773 752 0
-748 -752 773 0
-773 760 774 775 776 0
-773 -760 -774 0
-773 -760 -775 0
-773 -760 -776 0
-777 748 0
-777 753 0
-748 -753 777 0
-777 778 0
-777 760 775 776 0
-777 -760 -775 0
-777 -760 -776 0
-779 748 0
-779 754 0
-748 -754 779 0
-779 774 0
-779 760 776 0
-779 -760 -776 0
-780 748 0
-780 755 0
-748 -755 780 0
-780 775 0
-780 760 0
-781 749 0
-781 752 0
-749 -752 781 0
-781 760 782 783 784 0
-781 -760 -782 0
-781 -760 -783 0
-781 -760 -784 0
-785 749 0
-785 753 0
-749 -753 785 0
-785 786 0
-785 760 783 784 0
-785 -760 -783 0
-785 -760 -784 0
-787 749 0
-787 754 0
-749 -754 787 0
-787 782 0
-787 760 784 0
-787 -760 -784 0
-788 749 0
-788 755 0
-749 -755 788 0
-788 783 0
-788 760 0
-789 750 0
-789 752 0
-750 -752 789 0
-789 760 790 791 792 0
-789 -760 -790 0
-789 -760 -791 0
-789 -760 -792 0
-793 750 0
-793 753 0
-750 -753 793 0
-793 794 0
-793 760 791 792 0
-793 -760 -791 0
-793 -760 -792 0
-795 750 0
-795 754 0
-750 -754 795 0
-795 790 0
-795 760 792 0
-795 -760 -792 0
-796 750 0
-796 755 0
-750 -755 796 0
-796 791 0
-796 760 0
-797 751 0
-797 752 0
-751 -752 797 0
-797 760 798 799 800 0
-797 -760 -798 0
-797 -760 -799 0
-797 -760 -800 0
-801 751 0
-801 753 0
-751 -753 801 0
-801 802 0
-801 760 799 800 0
-801 -760 -799 0
-801 -760 -800 0
-803 751 0
-803 754 0
-751 -754 803 0
-803 798 0
-803 760 800 0
-803 -760 -800 0
-804 751 0
-804 755 0
-751 -755 804 0
-804 799 0
-804 760 0
805 806 807 808 809 810 0
-805 -806 0
-805 -807 0
-805 -808 0
-805 -809 0
-805 -810 0
-806 -807 0
-806 -808 0
-806 -809 0
-806 -810 0
-807 -808 0
-807 -809 0
-807 -810 0
-808 -809 0
-808 -810 0
-809 -810 0
811 812 813 814 0
-811 -812 0
-811 -813 0
-811 -814 0
-812 -813 0
-812 -814 0
-813 -814 0
-815 805 0
-815 811 0
-805 -811 815 0
-815 816 757 758 759 0
-815 -816 -757 0
-815 -816 -758 0
-815 -816 -759 0
-817 805 0
-817 812 0
-805 -812 817 0
-817 762 0
-817 816 758 759 0
-817 -816 -758 0
-817 -816 -759 0
-818 805 0
-818 813 0
-805 -813 818 0
-818 757 0
-818 816 759 0
-818 -816 -759 0
-819 805 0
-819 814 0
-805 -814 819 0
-819 758 0
-819 816 0
-820 806 0
-820 811 0
-806 -811 820 0
-820 816 766 767 768 0
-820 -816 -766 0
-820 -816 -767 0
-820 -816 -768 0
-821 806 0
-821 812 0
-806 -812 821 0
-821 770 0
-821 816 767 768 0
-821 -816 -767 0
-821 -816 -768 0
-822 806 0
-822 813 0
-806 -813 822 0
-822 766 0
-822 816 768 0
-822 -816 -768 0
-823 806 0
-823 814 0
-806 -814 823 0
-823 767 0
-823 816 0
-824 807 0
-824 811 0
-807 -811 824 0
-824 816 774 775 776 0
-824 -816 -774 0
-824 -816 -775 0
-824 -816 -776 0
-825 807 0
-825 812 0
-807 -812 825 0
-825 778 0
-825 816 775 776 0
-825 -816 -775 0
-825 -816 -776 0
-826 807 0
-826 813 0
-807 -813 826 0
-826 774 0
-826 816 776 0
-826 -816 -776 0
-827 807 0
-827 814 0
-807 -814 827 0
-827 775 0
-827 816 0
-828 808 0
-828 811 0
-808 -811 828 0
-828 816 782 783 784 0
-828 -816 -782 0
-828 -816 -783 0
-828 -816 -784 0
-829 808 0
-829 812 0
-808 -812 829 0
-829 786 0
-829 816 783 784 0
-829 -816 -783 0
-829 -816 -784 0
-830 808 0
-830 813 0
-808 -813 830 0
-830 782 0
-830 816 784 0
-830 -816 -784 0
-831 808 0
-831 814 0
-808 -814 831 0
-831 783 0
-831 816 0
-832 809 0
-832 811 0
-809 -811 832 0
-832 816 790 791 792 0
-832 -816 -790 0
-832 -816 -791 0
-832 -816 -792 0
-833 809 0
-833 812 0
-809 -812 833 0
-833 794 0
-833 816 791 792 0
-833 -816 -791 0
-833 -816 -792 0
-834 809 0
-834 813 0
-809 -813 834 0
-834 790 0
-834 816 792 0
-834 -816 -792 0
-835 809 0
-835 814 0
-809 -814 835 0
-835 791 0
-835 816 0
-836 810 0
-836 811 0
-810 -811 836 0
-836 816 798 799 800 0
-836 -816 -798 0
-836 -816 -799 0
-836 -816 -800 0
-837 810 0
-837 812 0
-810 -812 837 0
-837 802 0
-837 816 799 800 0
-837 -816 -799 0
-837 -816 -800 0
-838 810 0
-838 813 0
-810 -813 838 0
-838 798 0
-838 816 800 0
-838 -816 -800 0
-839 810 0
-839 814 0
-810 -814 839 0
-839 799 0
-839 816 0
840 841 842 843 844 0
-840 -841 0
-840 -842 0
-840 -843 0
-840 -844 0
-841 -842 0
-841 -843 0
-841 -844 0
-842 -843 0
-842 -844 0
-843 -844 0
845 846 847 848 0
-845 -846 0
-845 -847 0
-845 -848 0
-846 -847 0
-846 -848 0
-847 -848 0
-849 840 0
-849 845 0
-840 -845 849 0
-849 850 757 758 759 766 767 768 0
-849 -850 -757 0
-849 -850 -758 0
-849 -850 -759 0
-849 -850 -766 0
-849 -850 -767 0
-849 -850 -768 0
-851 840 0
-851 846 0
-840 -846 851 0
-851 762 770 0
-851 850 758 759 767 768 0
-851 -850 -758 0
-851 -850 -759 0
-851 -850 -767 0
-851 -850 -768 0
-852 840 0
-852 847 0
-840 -847 852 0
-852 757 766 0
-852 850 759 768 0
-852 -850 -759 0
-852 -850 -768 0
-853 840 0
-853 848 0
-840 -848 853 0
-853 758 767 0
-853 850 0
-854 841 0
-854 845 0
-841 -845 854 0
-854 850 766 767 768 774 775 776 0
-854 -850 -766 0
-854 -850 -767 0
-854 -850 -768 0
-854 -850 -774 0
-854 -850 -775 0
-854 -850 -776 0
-855 841 0
-855 846 0
-841 -846 855 0
-855 770 778 0
-855 850 767 768 775 776 0
-855 -850 -767 0
-855 -850 -768 0
-855 -850 -775 0
-855 -850 -776 0
-856 841 0
-856 847 0
-841 -847 856 0
-856 766 774 0
-856 850 768 776 0
-856 -850 -768 0
-856 -850 -776 0
-857 841 0
-857 848 0
-841 -848 857 0
-857 767 775 0
-857 850 0
-858 842 0
-858 845 0
-842 -845 858 0
-858 850 774 775 776 782 783 784 0
-858 -850 -774 0
-858 -850 -775 0
-858 -850 -776 0
-858 -850 -782 0
-858 -850 -783 0
-858 -850 -784 0
-859 842 0
-859 846 0
-842 -846 859 0
-859 778 786 0
-859 850 775 776 783 784 0
-859 -850 -775 0
-859 -850 -776 0
-859 -850 -783 0
-859 -850 -784 0
-860 842 0
-860 847 0
-842 -847 860 0
-860 774 782 0
-860 850 776 784 0
-860 -850 -776 0
-860 -850 -784 0
-861 842 0
-861 848 0
-842 -848 861 0
-861 775 783 0
-861 850 0
-862 843 0
-862 845 0
-843 -845 862 0
-862 850 782 783 784 790 791 792 0
-862 -850 -782 0
-862 -850 -783 0
-862 -850 -784 0
-862 -850 -790 0
-862 -850 -791 0
-862 -850 -792 0
-863 843 0
-863 846 0
-843 -846 863 0
-863 786 794 0
-863 850 783 784 791 792 0
-863 -850 -783 0
-863 -850 -784 0
-863 -850 -791 0
-863 -850 -792 0
-864 843 0
-864 847 0
-843 -847 864 0
-864 782 790 0
-864 850 784 792 0
-864 -850 -784 0
-864 -850 -792 0
-865 843 0
-865 848 0
-843 -848 865 0
-865 783 791 0
-865 850 0
-866 844 0
-866 845 0
-844 -845 866 0
-866 850 790 791 792 798 799 800 0
-866 -850 -790 0
-866 -850 -791 0
-866 -850 -792 0
-866 -850 -798 0
-866 -850 -799 0
-866 -850 -800 0
-867 844 0
-867 846 0
-844 -846 867 0
-867 794 802 0
-867 850 791 792 799 800 0
-867 -850 -791 0
-867 -850 -792 0
-867 -850 -799 0
-867 -850 -800 0
-868 844 0
-868 847 0
-844 -847 868 0
-868 790 798 0
-868 850 792 800 0
-868 -850 -792 0
-868 -850 -800 0
-869 844 0
-869 848 0
-844 -848 869 0
-869 791 799 0
-869 850 0
870 871 872 873 0
-870 -871 0
-870 -872 0
-870 -873 0
-871 -872 0
-871 -873 0
-872 -873 0
874 875 876 877 0
-874 -875 0
-874 -876 0
-874 -877 0
-875 -876 0
-875 -877 0
-876 -877 0
-878 870 0
-878 874 0
-870 -874 878 0
-878 879 757 758 759 766 767 768 774 775 776 0
-878 -879 -757 0
-878 -879 -758 0
-878 -879 -759 0
-878 -879 -766 0
-878 -879 -767 0
-878 -879 -768 0
-878 -879 -774 0
-878 -879 -775 0
-878 -879 -776 0
-880 870 0
-880 875 0
-870 -875 880 0
-880 762 770 0
-880 762 778 0
-880 770 778 0
-880 879 758 759 767 768 775 776 0
-880 -879 -758 0
-880 -879 -759 0
-880 -879 -767 0
-880 -879 -768 0
-880 -879 -775 0
-880 -879 -776 0
-881 870 0
-881 876 0
-870 -876 881 0
-881 757 766 0
-881 757 774 0
-881 766 774 0
-881 879 759 768 776 0
-881 -879 -759 0
-881 -879 -768 0
-881 -879 -776 0
-882 870 0
-882 877 0
-870 -877 882 0
-882 758 767 0
-882 758 775 0
-882 767 775 0
-882 879 0
-883 871 0
-883 874 0
-871 -874 883 0
-883 879 766 767 768 774 775 776 782 783 784 0
-883 -879 -766 0
-883 -879 -767 0
-883 -879 -768 0
-883 -879 -774 0
-883 -879 -775 0
-883 -879 -776 0
-883 -879 -782 0
-883 -879 -783 0
-883 -879 -784 0
-884 871 0
-884 875 0
-871 -875 884 0
-884 770 778 0
-884 770 786 0
-884 778 786 0
-884 879 767 768 775 776 783 784 0
-884 -879 -767 0
-884 -879 -768 0
-884 -879 -775 0
-884 -879 -776 0
-884 -879 -783 0
-884 -879 -784 0
-885 871 0
-885 876 0
-871 -876 885 0
-885 766 774 0
-885 766 782 0
-885 774 782 0
-885 879 768 776 784 0
-885 -879 -768 0
-885 -879 -776 0
-885 -879 -784 0
-886 871 0
-886 877 0
-871 -877 886 0
-886 767 775 0
-886 767 783 0
-886 775 783 0
-886 879 0
-887 872 0
-887 874 0
-872 -874 887 0
-887 879 774 775 776 782 783 784 790 791 792 0
-887 -879 -774 0
-887 -879 -775 0
-887 -879 -776 0
-887 -879 -782 0
-887 -879 -783 0
-887 -879 -784 0
-887 -879 -790 0
-887 -879 -791 0
-887 -879 -792 0
-888 872 0
-888 875 0
-872 -875 888 0
-888 778 786 0
-888 778 794 0
-888 786 794 0
-888 879 775 776 783 784 791 792 0
-888 -879 -775 0
-888 -879 -776 0
-888 -879 -783 0
-888 -879 -784 0
-888 -879 -791 0
-888 -879 -792 0
-889 872 0
-889 876 0
-872 -876 889 0
-889 774 782 0
-889 774 790 0
-889 782 790 0
-889 879 776 784 792 0
-889 -879 -776 0
-889 -879 -784 0
-889 -879 -792 0
-890 872 0
-890 877 0
-872 -877 890 0
-890 775 783 0
-890 775 791 0
-890 783 791 0
-890 879 0
-891 873 0
-891 874 0
-873 -874 891 0
-891 879 782 783 784 790 791 792 798 799 800 0
-891 -879 -782 0
-891 -879 -783 0
-891 -879 -784 0
-891 -879 -790 0
-891 -879 -791 0
-891 -879 -792 0
-891 -879 -798 0
-891 -879 -799 0
-891 -879 -800 0
-892 873 0
-892 875 0
-873 -875 892 0
-892 786 794 0
-892 786 802 0
-892 794 802 0
-892 879 783 784 791 792 799 800 0
-892 -879 -783 0
-892 -879 -784 0
-892 -879 -791 0
-892 -879 -792 0
-892 -879 -799 0
-892 -879 -800 0
-893 873 0
-893 876 0
-873 -876 893 0
-893 782 790 0
-893 782 798 0
-893 790 798 0
-893 879 784 792 800 0
-893 -879 -784 0
-893 -879 -792 0
-893 -879 -800 0
-894 873 0
-894 877 0
-873 -877 894 0
-894 783 791 0
-894 783 799 0
-894 791 799 0
-894 879 0
-762 756 815 849 878 0
-756 762 0
-815 762 0
-849 762 0
-878 762 0
-756 -815 0
-756 -849 0
-756 -878 0
-815 -849 0
-815 -878 0
-849 -878 0
-757 761 817 851 880 0
-761 757 0
-817 757 0
-851 757 0
-880 757 0
-761 -817 0
-761 -851 0
-761 -880 0
-817 -851 0
-817 -880 0
-851 -880 0
-758 763 818 852 881 0
-763 758 0
-818 758 0
-852 758 0
-881 758 0
-763 -818 0
-763 -852 0
-763 -881 0
-818 -852 0
-818 -881 0
-852 -881 0
-759 764 819 853 882 0
-764 759 0
-819 759 0
-853 759 0
-882 759 0
-764 -819 0
-764 -853 0
-764 -882 0
-819 -853 0
-819 -882 0
-853 -882 0
-770 765 820 849 854 878 883 0
-765 770 0
-820 770 0
-849 770 0
-854 770 0
-878 770 0
-883 770 0
-765 -820 0
-765 -849 0
-765 -854 0
-765 -878 0
-765 -883 0
-820 -849 0
-820 -854 0
-820 -878 0
-820 -883 0
-849 -854 0
-849 -878 0
-849 -883 0
-854 -878 0
-854 -883 0
-878 -883 0
-766 769 821 851 855 880 884 0
-769 766 0
-821 766 0
-851 766 0
-855 766 0
-880 766 0
-884 766 0
-769 -821 0
-769 -851 0
-769 -855 0
-769 -880 0
-769 -884 0
-821 -851 0
-821 -855 0
-821 -880 0
-821 -884 0
-851 -855 0
-851 -880 0
-851 -884 0
-855 -880 0
-855 -884 0
-880 -884 0
-767 771 822 852 856 881 885 0
-771 767 0
-822 767 0
-852 767 0
-856 767 0
-881 767 0
-885 767 0
-771 -822 0
-771 -852 0
-771 -856 0
-771 -881 0
-771 -885 0
-822 -852 0
-822 -856 0
-822 -881 0
-822 -885 0
-852 -856 0
-852 -881 0
-852 -885 0
-856 -881 0
-856 -885 0
-881 -885 0
-768 772 823 853 857 882 886 0
-772 768 0
-823 768 0
-853 768 0
-857 768 0
-882 768 0
-886 768 0
-772 -823 0
-772 -853 0
-772 -857 0
-772 -882 0
-772 -886 0
-823 -853 0
-823 -857 0
-823 -882 0
-823 -886 0
-853 -857 0
-853 -882 0
-853 -886 0
-857 -882 0
-857 -886 0
-882 -886 0
-778 773 824 854 858 878 883 887 0
-773 778 0
-824 778 0
-854 778 0
-858 778 0
-878 778 0
-883 778 0
-887 778 0
-773 -824 0
-773 -854 0
-773 -858 0
-773 -878 0
-773 -883 0
-773 -887 0
-824 -854 0
-824 -858 0
-824 -878 0
-824 -883 0
-824 -887 0
-854 -858 0
-854 -878 0
-854 -883 0
-854 -887 0
-858 -878 0
-858 -883 0
-858 -887 0
-878 -883 0
-878 -887 0
-883 -887 0
-774 777 825 855 859 880 884 888 0
-777 774 0
-825 774 0
-855 774 0
-859 774 0
-880 774 0
-884 774 0
-888 774 0
-777 -825 0
-777 -855 0
-777 -859 0
-777 -880 0
-777 -884 0
-777 -888 0
-825 -855 0
-825 -859 0
-825 -880 0
-825 -884 0
-825 -888 0
-855 -859 0
-855 -880 0
-855 -884 0
-855 -888 0
-859 -880 0
-859 -884 0
-859 -888 0
-880 -884 0
-880 -888 0
-884 -888 0
-775 779 826 856 860 881 885 889 0
-779 775 0
-826 775 0
-856 775 0
-860 775 0
-881 775 0
-885 775 0
-889 775 0
-779 -826 0
-779 -856 0
-779 -860 0
-779 -881 0
-779 -885 0
-779 -889 0
-826 -856 0
-826 -860 0
-826 -881 0
-826 -885 0
-826 -889 0
-856 -860 0
-856 -881 0
-856 -885 0
-856 -889 0
-860 -881 0
-860 -885 0
-860 -889 0
-881 -885 0
-881 -889 0
-885 -889 0
-776 780 827 857 861 882 886 890 0
-780 776 0
-827 776 0
-857 776 0
-861 776 0
-882 776 0
-886 776 0
-890 776 0
-780 -827 0
-780 -857 0
-780 -861 0
-780 -882 0
-780 -886 0
-780 -890 0
-827 -857 0
-827 -861 0
-827 -882 0
-827 -886 0
-827 -890 0
-857 -861 0
-857 -882 0
-857 -886 0
-857 -890 0
-861 -882 0
-861 -886 0
-861 -890 0
-882 -886 0
-882 -890 0
-886 -890 0
-786 781 828 858 862 883 887 891 0
-781 786 0
-828 786 0
-858 786 0
-862 786 0
-883 786 0
-887 786 0
-891 786 0
-781 -828 0
-781 -858 0
-781 -862 0
-781 -883 0
-781 -887 0
-781 -891 0
-828 -858 0
-828 -862 0
-828 -883 0
-828 -887 0
-828 -891 0
-858 -862 0
-858 -883 0
-858 -887 0
-858 -891 0
-862 -883 0
-862 -887 0
-862 -891 0
-883 -887 0
-883 -891 0
-887 -891 0
-782 785 829 859 863 884 888 892 0
-785 782 0
-829 782 0
-859 782 0
-863 782 0
-884 782 0
-888 782 0
-892 782 0
-785 -829 0
-785 -859 0
-785 -863 0
-785 -884 0
-785 -888 0
-785 -892 0
-829 -859 0
-829 -863 0
-829 -884 0
-829 -888 0
-829 -892 0
-859 -863 0
-859 -884 0
-859 -888 0
-859 -892 0
-863 -884 0
-863 -888 0
-863 -892 0
-884 -888 0
-884 -892 0
-888 -892 0
-783 787 830 860 864 885 889 893 0
-787 783 0
-830 783 0
-860 783 0
-864 783 0
-885 783 0
-889 783 0
-893 783 0
-787 -830 0
-787 -860 0
-787 -864 0
-787 -885 0
-787 -889 0
-787 -893 0
-830 -860 0
-830 -864 0
-830 -885 0
-830 -889 0
-830 -893 0
-860 -864 0
-860 -885 0
-860 -889 0
-860 -893 0
-864 -885 0
-864 -889 0
-864 -893 0
-885 -889 0
-885 -893 0
-889 -893 0
-784 788 831 861 865 886 890 894 0
-788 784 0
-831 784 0
-861 784 0
-865 784 0
-886 784 0
-890 784 0
-894 784 0
-788 -831 0
-788 -861 0
-788 -865 0
-788 -886 0
-788 -890 0
-788 -894 0
-831 -861 0
-831 -865 0
-831 -886 0
-831 -890 0
-831 -894 0
-861 -865 0
-861 -886 0
-861 -890 0
-861 -894 0
-865 -886 0
-865 -890 0
-865 -894 0
-886 -890 0
-886 -894 0
-890 -894 0
-794 789 832 862 866 887 891 0
-789 794 0
-832 794 0
-862 794 0
-866 794 0
-887 794 0
-891 794 0
-789 -832 0
-789 -862 0
-789 -866 0
-789 -887 0
-789 -891 0
-832 -862 0
-832 -866 0
-832 -887 0
-832 -891 0
-862 -866 0
-862 -887 0
-862 -891 0
-866 -887 0
-866 -891 0
-887 -891 0
-790 793 833 863 867 888 892 0
-793 790 0
-833 790 0
-863 790 0
-867 790 0
-888 790 0
-892 790 0
-793 -833 0
-793 -863 0
-793 -867 0
-793 -888 0
-793 -892 0
-833 -863 0
-833 -867 0
-833 -888 0
-833 -892 0
-863 -867 0
-863 -888 0
-863 -892 0
-867 -888 0
-867 -892 0
-888 -892 0
-791 795 834 864 868 889 893 0
-795 791 0
-834 791 0
-864 791 0
-868 791 0
-889 791 0
-893 791 0
-795 -834 0
-795 -864 0
-795 -868 0
-795 -889 0
-795 -893 0
-834 -864 0
-834 -868 0
-834 -889 0
-834 -893 0
-864 -868 0
-864 -889 0
-864 -893 0
-868 -889 0
-868 -893 0
-889 -893 0
-792 796 835 865 869 890 894 0
-796 792 0
-835 792 0
-865 792 0
-869 792 0
-890 792 0
-894 792 0
-796 -835 0
-796 -865 0
-796 -869 0
-796 -890 0
-796 -894 0
-835 -865 0
-835 -869 0
-835 -890 0
-835 -894 0
-865 -869 0
-865 -890 0
-865 -894 0
-869 -890 0
-869 -894 0
-890 -894 0
-802 797 836 866 891 0
-797 802 0
-836 802 0
-866 802 0
-891 802 0
-797 -836 0
-797 -866 0
-797 -891 0
-836 -866 0
-836 -891 0
-866 -891 0
-798 801 837 867 892 0
-801 798 0
-837 798 0
-867 798 0
-892 798 0
-801 -837 0
-801 -867 0
-801 -892 0
-837 -867 0
-837 -892 0
-867 -892 0
-799 803 838 868 893 0
-803 799 0
-838 799 0
-868 799 0
-893 799 0
-803 -838 0
-803 -868 0
-803 -893 0
-838 -868 0
-838 -893 0
-868 -893 0
-800 804 839 869 894 0
-804 800 0
-839 800 0
-869 800 0
-894 800 0
-804 -839 0
-804 -869 0
-804 -894 0
-839 -869 0
-839 -894 0
-869 -894 0
1 0
8 0
61 0
67 0
95 0
100 0
128 0
129 0
750 0
754 0
810 0
813 0
844 0
846 0
873 0
874 0
-895 15 0
-895 150 0
-895 164 0
-895 156 0
-895 -1 -7 0
-896 15 0
-896 151 0
-896 164 0
-896 156 0
-896 -2 -7 0
-897 15 0
-897 152 0
-897 164 0
-897 156 0
-897 -3 -7 0
-898 15 0
-898 153 0
-898 164 0
-898 156 0
-898 -4 -7 0
-899 15 0
-899 154 0
-899 164 0
-899 156 0
-899 -5 -7 0
-900 15 0
-900 155 0
-900 164 0
-900 156 0
-900 -6 -7 0
-901 15 0
-901 150 0
-901 164 0
-901 60 0
-901 -69 0
-901 -220 0
-901 -66 157 0
-901 -66 -1 -8 0
-901 -67 158 0
-901 -67 -1 -9 0
-901 -68 159 0
-901 -68 -1 -10 0
-902 15 0
-902 151 0
-902 164 0
-902 61 0
-902 -69 0
-902 -220 0
-902 -66 157 0
-902 -66 -2 -8 0
-902 -67 158 0
-902 -67 -2 -9 0
-902 -68 159 0
-902 -68 -2 -10 0
-903 15 0
-903 152 0
-903 164 0
-903 62 0
-903 -69 0
-903 -220 0
-903 -66 157 0
-903 -66 -3 -8 0
-903 -67 158 0
-903 -67 -3 -9 0
-903 -68 159 0
-903 -68 -3 -10 0
-904 15 0
-904 153 0
-904 164 0
-904 63 0
-904 -69 0
-904 -220 0
-904 -66 157 0
-904 -66 -4 -8 0
-904 -67 158 0
-904 -67 -4 -9 0
-904 -68 159 0
-904 -68 -4 -10 0
-905 15 0
-905 154 0
-905 164 0
-905 64 0
-905 -69 0
-905 -220 0
-905 -66 157 0
-905 -66 -5 -8 0
-905 -67 158 0
-905 -67 -5 -9 0
-905 -68 159 0
-905 -68 -5 -10 0
-906 15 0
-906 155 0
-906 164 0
-906 65 0
-906 -69 0
-906 -220 0
-906 -66 157 0
-906 -66 -6 -8 0
-906 -67 158 0
-906 -67 -6 -9 0
-906 -68 159 0
-906 -68 -6 -10 0
-907 15 0
-907 150 0
-907 164 0
-907 95 0
-907 -103 0
-907 -254 0
-907 -100 157 0
-907 -100 -1 -8 0
-907 -101 158 0
-907 -101 -1 -9 0
-907 -102 159 0
-907 -102 -1 -10 0
-908 15 0
-908 151 0
-908 164 0
-908 95 96 0
-908 -103 0
-908 -254 0
-908 -100 157 0
-908 -100 -2 -8 0
-908 -101 158 0
-908 -101 -2 -9 0
-908 -102 159 0
-908 -102 -2 -10 0
-909 15 0
-909 152 0
-909 164 0
-909 96 97 0
-909 -103 0
-909 -254 0
-909 -100 157 0
-909 -100 -3 -8 0
-909 -101 158 0
-909 -101 -3 -9 0
-909 -102 159 0
-909 -102 -3 -10 0
-910 15 0
-910 153 0
-910 164 0
-910 97 98 0
-910 -103 0
-910 -254 0
-910 -100 157 0
-910 -100 -4 -8 0
-910 -101 158 0
-910 -101 -4 -9 0
-910 -102 159 0
-910 -102 -4 -10 0
-911 15 0
-911 154 0
-911 164 0
-911 98 99 0
-911 -103 0
-911 -254 0
-911 -100 157 0
-911 -100 -5 -8 0
-911 -101 158 0
-911 -101 -5 -9 0
-911 -102 159 0
-911 -102 -5 -10 0
-912 15 0
-912 155 0
-912 164 0
-912 99 0
-912 -103 0
-912 -254 0
-912 -100 157 0
-912 -100 -6 -8 0
-912 -101 158 0
-912 -101 -6 -9 0
-912 -102 159 0
-912 -102 -6 -10 0
-913 15 0
-913 150 0
-913 164 0
-913 125 0
-913 -132 0
-913 -283 0
-913 -129 157 0
-913 -129 -1 -8 0
-913 -130 158 0
-913 -130 -1 -9 0
-913 -131 159 0
-913 -131 -1 -10 0
-914 15 0
-914 151 0
-914 164 0
-914 125 126 0
-914 -132 0
-914 -283 0
-914 -129 157 0
-914 -129 -2 -8 0
-914 -130 158 0
-914 -130 -2 -9 0
-914 -131 159 0
-914 -131 -2 -10 0
-915 15 0
-915 152 0
-915 164 0
-915 125 126 127 0
-915 -132 0
-915 -283 0
-915 -129 157 0
-915 -129 -3 -8 0
-915 -130 158 0
-915 -130 -3 -9 0
-915 -131 159 0
-915 -131 -3 -10 0
-916 15 0
-916 153 0
-916 164 0
-916 126 127 128 0
-916 -132 0
-916 -283 0
-916 -129 157 0
-916 -129 -4 -8 0
-916 -130 158 0
-916 -130 -4 -9 0
-916 -131 159 0
-916 -131 -4 -10 0
-917 15 0
-917 154 0
-917 164 0
-917 127 128 0
-917 -132 0
-917 -283 0
-917 -129 157 0
-917 -129 -5 -8 0
-917 -130 158 0
-917 -130 -5 -9 0
-917 -131 159 0
-917 -131 -5 -10 0
-918 15 0
-918 155 0
-918 164 0
-918 128 0
-918 -132 0
-918 -283 0
-918 -129 157 0
-918 -129 -6 -8 0
-918 -130 158 0
-918 -130 -6 -9 0
-918 -131 159 0
-918 -131 -6 -10 0
-919 71 0
-919 209 0
-919 220 0
-919 215 0
-919 -60 -66 0
-920 71 0
-920 210 0
-920 220 0
-920 215 0
-920 -61 -66 0
-921 71 0
-921 211 0
-921 220 0
-921 215 0
-921 -62 -66 0
-922 71 0
-922 212 0
-922 220 0
-922 215 0
-922 -63 -66 0
-923 71 0
-923 213 0
-923 220 0
-923 215 0
-923 -64 -66 0
-924 71 0
-924 214 0
-924 220 0
-924 215 0
-924 -65 -66 0
-925 71 0
-925 209 0
-925 220 0
-925 1 0
-925 -10 0
-925 -164 0
-925 -7 216 0
-925 -7 -60 -67 0
-925 -8 217 0
-925 -8 -60 -68 0
-925 -9 218 0
-925 -9 -60 -69 0
-926 71 0
-926 210 0
-926 220 0
-926 2 0
-926 -10 0
-926 -164 0
-926 -7 216 0
-926 -7 -61 -67 0
-926 -8 217 0
-926 -8 -61 -68 0
-926 -9 218 0
-926 -9 -61 -69 0
-927 71 0
-927 211 0
-927 220 0
-927 3 0
-927 -10 0
-927 -164 0
-927 -7 216 0
-927 -7 -62 -67 0
-927 -8 217 0
-927 -8 -62 -68 0
-927 -9 218 0
-927 -9 -62 -69 0
-928 71 0
-928 212 0
-928 220 0
-928 4 0
-928 -10 0
-928 -164 0
-928 -7 216 0
-928 -7 -63 -67 0
-928 -8 217 0
-928 -8 -63 -68 0
-928 -9 218 0
-928 -9 -63 -69 0
-929 71 0
-929 213 0
-929 220 0
-929 5 0
-929 -10 0
-929 -164 0
-929 -7 216 0
-929 -7 -64 -67 0
-929 -8 217 0
-929 -8 -64 -68 0
-929 -9 218 0
-929 -9 -64 -69 0
-930 71 0
-930 214 0
-930 220 0
-930 6 0
-930 -10 0
-930 -164 0
-930 -7 216 0
-930 -7 -65 -67 0
-930 -8 217 0
-930 -8 -65 -68 0
-930 -9 218 0
-930 -9 -65 -69 0
-931 71 0
-931 209 0
-931 220 0
-931 95 0
-931 -103 0
-931 -254 0
-931 -100 216 0
-931 -100 -60 -67 0
-931 -101 217 0
-931 -101 -60 -68 0
-931 -102 218 0
-931 -102 -60 -69 0
-932 71 0
-932 210 0
-932 220 0
-932 95 96 0
-932 -103 0
-932 -254 0
-932 -100 216 0
-932 -100 -61 -67 0
-932 -101 217 0
-932 -101 -61 -68 0
-932 -102 218 0
-932 -102 -61 -69 0
-933 71 0
-933 211 0
-933 220 0
-933 96 97 0
-933 -103 0
-933 -254 0
-933 -100 216 0
-933 -100 -62 -67 0
-933 -101 217 0
-933 -101 -62 -68 0
-933 -102 218 0
-933 -102 -62 -69 0
-934 71 0
-934 212 0
-934 220 0
-934 97 98 0
-934 -103 0
-934 -254 0
-934 -100 216 0
-934 -100 -63 -67 0
-934 -101 217 0
-934 -101 -63 -68 0
-934 -102 218 0
-934 -102 -63 -69 0
-935 71 0
-935 213 0
-935 220 0
-935 98 99 0
-935 -103 0
-935 -254 0
-935 -100 216 0
-935 -100 -64 -67 0
-935 -101 217 0
-935 -101 -64 -68 0
-935 -102 218 0
-935 -102 -64 -69 0
-936 71 0
-936 214 0
-936 220 0
-936 99 0
-936 -103 0
-936 -254 0
-936 -100 216 0
-936 -100 -65 -67 0
-936 -101 217 0
-936 -101 -65 -68 0
-936 -102 218 0
-936 -102 -65 -69 0
-937 71 0
-937 209 0
-937 220 0
-937 125 0
-937 -132 0
-937 -283 0
-937 -129 216 0
-937 -129 -60 -67 0
-937 -130 217 0
-937 -130 -60 -68 0
-937 -131 218 0
-937 -131 -60 -69 0
-938 71 0
-938 210 0
-938 220 0
-938 125 126 0
-938 -132 0
-938 -283 0
-938 -129 216 0
-938 -129 -61 -67 0
-938 -130 217 0
-938 -130 -61 -68 0
-938 -131 218 0
-938 -131 -61 -69 0
-939 71 0
-939 211 0
-939 220 0
-939 125 126 127 0
-939 -132 0
-939 -283 0
-939 -129 216 0
-939 -129 -62 -67 0
-939 -130 217 0
-939 -130 -62 -68 0
-939 -131 218 0
-939 -131 -62 -69 0
-940 71 0
-940 212 0
-940 220 0
-940 126 127 128 0
-940 -132 0
-940 -283 0
-940 -129 216 0
-940 -129 -63 -67 0
-940 -130 217 0
-940 -130 -63 -68 0
-940 -131 218 0
-940 -131 -63 -69 0
-941 71 0
-941 213 0
-941 220 0
-941 127 128 0
-941 -132 0
-941 -283 0
-941 -129 216 0
-941 -129 -64 -67 0
-941 -130 217 0
-941 -130 -64 -68 0
-941 -131 218 0
-941 -131 -64 -69 0
-942 71 0
-942 214 0
-942 220 0
-942 128 0
-942 -132 0
-942 -283 0
-942 -129 216 0
-942 -129 -65 -67 0
-942 -130 217 0
-942 -130 -65 -68 0
-942 -131 218 0
-942 -131 -65 -69 0
-943 105 0
-943 244 0
-943 254 0
-943 249 0
-943 -95 -100 0
-944 105 0
-944 245 0
-944 254 0
-944 249 0
-944 -96 -100 0
-945 105 0
-945 246 0
-945 254 0
-945 249 0
-945 -97 -100 0
-946 105 0
-946 247 0
-946 254 0
-946 249 0
-946 -98 -100 0
-947 105 0
-947 248 0
-947 254 0
-947 249 0
-947 -99 -100 0
-948 105 0
-948 244 0
-948 254 0
-948 1 2 0
-948 -10 0
-948 -164 0
-948 -7 250 0
-948 -7 -95 -101 0
-948 -8 251 0
-948 -8 -95 -102 0
-948 -9 252 0
-948 -9 -95 -103 0
-949 105 0
-949 245 0
-949 254 0
-949 2 3 0
-949 -10 0
-949 -164 0
-949 -7 250 0
-949 -7 -96 -101 0
-949 -8 251 0
-949 -8 -96 -102 0
-949 -9 252 0
-949 -9 -96 -103 0
-950 105 0
-950 246 0
-950 254 0
-950 3 4 0
-950 -10 0
-950 -164 0
-950 -7 250 0
-950 -7 -97 -101 0
-950 -8 251 0
-950 -8 -97 -102 0
-950 -9 252 0
-950 -9 -97 -103 0
-951 105 0
-951 247 0
-951 254 0
-951 4 5 0
-951 -10 0
-951 -164 0
-951 -7 250 0
-951 -7 -98 -101 0
-951 -8 251 0
-951 -8 -98 -102 0
-951 -9 252 0
-951 -9 -98 -103 0
-952 105 0
-952 248 0
-952 254 0
-952 5 6 0
-952 -10 0
-952 -164 0
-952 -7 250 0
-952 -7 -99 -101 0
-952 -8 251 0
-952 -8 -99 -102 0
-952 -9 252 0
-952 -9 -99 -103 0
-953 105 0
-953 244 0
-953 254 0
-953 60 61 0
-953 -69 0
-953 -220 0
-953 -66 250 0
-953 -66 -95 -101 0
-953 -67 251 0
-953 -67 -95 -102 0
-953 -68 252 0
-953 -68 -95 -103 0
-954 105 0
-954 245 0
-954 254 0
-954 61 62 0
-954 -69 0
-954 -220 0
-954 -66 250 0
-954 -66 -96 -101 0
-954 -67 251 0
-954 -67 -96 -102 0
-954 -68 252 0
-954 -68 -96 -103 0
-955 105 0
-955 246 0
-955 254 0
-955 62 63 0
-955 -69 0
-955 -220 0
-955 -66 250 0
-955 -66 -97 -101 0
-955 -67 251 0
-955 -67 -97 -102 0
-955 -68 252 0
-955 -68 -97 -103 0
-956 105 0
-956 247 0
-956 254 0
-956 63 64 0
-956 -69 0
-956 -220 0
-956 -66 250 0
-956 -66 -98 -101 0
-956 -67 251 0
-956 -67 -98 -102 0
-956 -68 252 0
-956 -68 -98 -103 0
-957 105 0
-957 248 0
-957 254 0
-957 64 65 0
-957 -69 0
-957 -220 0
-957 -66 250 0
-957 -66 -99 -101 0
-957 -67 251 0
-957 -67 -99 -102 0
-957 -68 252 0
-957 -68 -99 -103 0
-958 105 0
-958 244 0
-958 254 0
-958 125 126 0
-958 -132 0
-958 -283 0
-958 -129 250 0
-958 -129 -95 -101 0
-958 -130 251 0
-958 -130 -95 -102 0
-958 -131 252 0
-958 -131 -95 -103 0
-959 105 0
-959 245 0
-959 254 0
-959 125 126 127 0
-959 -132 0
-959 -283 0
-959 -129 250 0
-959 -129 -96 -101 0
-959 -130 251 0
-959 -130 -96 -102 0
-959 -131 252 0
-959 -131 -96 -103 0
-960 105 0
-960 246 0
-960 254 0
-960 125 126 127 128 0
-960 -132 0
-960 -283 0
-960 -129 250 0
-960 -129 -97 -101 0
-960 -130 251 0
-960 -130 -97 -102 0
-960 -131 252 0
-960 -131 -97 -103 0
-961 105 0
-961 247 0
-961 254 0
-961 126 127 128 0
-961 -132 0
-961 -283 0
-961 -129 250 0
-961 -129 -98 -101 0
-961 -130 251 0
-961 -130 -98 -102 0
-961 -131 252 0
-961 -131 -98 -103 0
-962 105 0
-962 248 0
-962 254 0
-962 127 128 0
-962 -132 0
-962 -283 0
-962 -129 250 0
-962 -129 -99 -101 0
-962 -130 251 0
-962 -130 -99 -102 0
-962 -131 252 0
-962 -131 -99 -103 0
-963 134 0
-963 274 0
-963 283 0
-963 278 0
-963 -125 -129 0
-964 134 0
-964 275 0
-964 283 0
-964 278 0
-964 -126 -129 0
-965 134 0
-965 276 0
-965 283 0
-965 278 0
-965 -127 -129 0
-966 134 0
-966 277 0
-966 283 0
-966 278 0
-966 -128 -129 0
-967 134 0
-967 274 0
-967 283 0
-967 1 2 3 0
-967 -10 0
-967 -164 0
-967 -7 279 0
-967 -7 -125 -130 0
-967 -8 280 0
-967 -8 -125 -131 0
-967 -9 281 0
-967 -9 -125 -132 0
-968 134 0
-968 275 0
-968 283 0
-968 2 3 4 0
-968 -10 0
-968 -164 0
-968 -7 279 0
-968 -7 -126 -130 0
-968 -8 280 0
-968 -8 -126 -131 0
-968 -9 281 0
-968 -9 -126 -132 0
-969 134 0
-969 276 0
-969 283 0
-969 3 4 5 0
-969 -10 0
-969 -164 0
-969 -7 279 0
-969 -7 -127 -130 0
-969 -8 280 0
-969 -8 -127 -131 0
-969 -9 281 0
-969 -9 -127 -132 0
-970 134 0
-970 277 0
-970 283 0
-970 4 5 6 0
-970 -10 0
-970 -164 0
-970 -7 279 0
-970 -7 -128 -130 0
-970 -8 280 0
-970 -8 -128 -131 0
-970 -9 281 0
-970 -9 -128 -132 0
-971 134 0
-971 274 0
-971 283 0
-971 60 61 62 0
-971 -69 0
-971 -220 0
-971 -66 279 0
-971 -66 -125 -130 0
-971 -67 280 0
-971 -67 -125 -131 0
-971 -68 281 0
-971 -68 -125 -132 0
-972 134 0
-972 275 0
-972 283 0
-972 61 62 63 0
-972 -69 0
-972 -220 0
-972 -66 279 0
-972 -66 -126 -130 0
-972 -67 280 0
-972 -67 -126 -131 0
-972 -68 281 0
-972 -68 -126 -132 0
-973 134 0
-973 276 0
-973 283 0
-973 62 63 64 0
-973 -69 0
-973 -220 0
-973 -66 279 0
-973 -66 -127 -130 0
-973 -67 280 0
-973 -67 -127 -131 0
-973 -68 281 0
-973 -68 -127 -132 0
-974 134 0
-974 277 0
-974 283 0
-974 63 64 65 0
-974 -69 0
-974 -220 0
-974 -66 279 0
-974 -66 -128 -130 0
-974 -67 280 0
-974 -67 -128 -131 0
-974 -68 281 0
-974 -68 -128 -132 0
-975 134 0
-975 274 0
-975 283 0
-975 95 96 97 0
-975 -103 0
-975 -254 0
-975 -100 279 0
-975 -100 -125 -130 0
-975 -101 280 0
-975 -101 -125 -131 0
-975 -102 281 0
-975 -102 -125 -132 0
-976 134 0
-976 275 0
-976 283 0
-976 95 96 97 98 0
-976 -103 0
-976 -254 0
-976 -100 279 0
-976 -100 -126 -130 0
-976 -101 280 0
-976 -101 -126 -131 0
-976 -102 281 0
-976 -102 -126 -132 0
-977 134 0
-977 276 0
-977 283 0
-977 96 97 98 99 0
-977 -103 0
-977 -254 0
-977 -100 279 0
-977 -100 -127 -130 0
-977 -101 280 0
-977 -101 -127 -131 0
-977 -102 281 0
-977 -102 -127 -132 0
-978 134 0
-978 277 0
-978 283 0
-978 97 98 99 0
-978 -103 0
-978 -254 0
-978 -100 279 0
-978 -100 -128 -130 0
-978 -101 280 0
-978 -101 -128 -131 0
-978 -102 281 0
-978 -102 -128 -132 0
895 896 897 898 899 900 901 902 903 904 905 906 907 908 909 910 911 912 913 914 915 916 917 918 919 920 921 922 923 924 925 926 927 928 929 930 931 932 933 934 935 936 937 938 939 940 941 942 943 944 945 946 947 948 949 950 951 952 953 954 955 956 957 958 959 960 961 962 963 964 965 966 967 968 969 970 971 972 973 974 975 976 977 978 0
-895 -896 0
-895 -897 0
-895 -898 0
-895 -899 0
-895 -900 0
-895 -901 0
-895 -902 0
-895 -903 0
-895 -904 0
-895 -905 0
-895 -906 0
-895 -907 0
-895 -908 0
-895 -909 0
-895 -910 0
-895 -911 0
-895 -912 0
-895 -913 0
-895 -914 0
-895 -915 0
-895 -916 0
-895 -917 0
-895 -918 0
-895 -919 0
-895 -920 0
-895 -921 0
-895 -922 0
-895 -923 0
-895 -924 0
-895 -925 0
-895 -926 0
-895 -927 0
-895 -928 0
-895 -929 0
-895 -930 0
-895 -931 0
-895 -932 0
-895 -933 0
-895 -934 0
-895 -935 0
-895 -936 0
-895 -937 0
-895 -938 0
-895 -939 0
-895 -940 0
-895 -941 0
-895 -942 0
-895 -943 0
-895 -944 0
-895 -945 0
-895 -946 0
-895 -947 0
-895 -948 0
-895 -949 0
-895 -950 0
-895 -951 0
-895 -952 0
-895 -953 0
-895 -954 0
-895 -955 0
-895 -956 0
-895 -957 0
-895 -958 0
-895 -959 0
-895 -960 0
-895 -961 0
-895 -962 0
-895 -963 0
-895 -964 0
-895 -965 0
-895 -966 0
-895 -967 0
-895 -968 0
-895 -969 0
-895 -970 0
-895 -971 0
-895 -972 0
-895 -973 0
-895 -974 0
-895 -975 0
-895 -976 0
-895 -977 0
-895 -978 0
-896 -897 0
-896 -898 0
-896 -899 0
-896 -900 0
-896 -901 0
-896 -902 0
-896 -903 0
-896 -904 0
-896 -905 0
-896 -906 0
-896 -907 0
-896 -908 0
-896 -909 0
-896 -910 0
-896 -911 0
-896 -912 0
-896 -913 0
-896 -914 0
-896 -915 0
-896 -916 0
-896 -917 0
-896 -918 0
-896 -919 0
-896 -920 0
-896 -921 0
-896 -922 0
-896 -923 0
-896 -924 0
-896 -925 0
-896 -926 0
-896 -927 0
-896 -928 0
-896 -929 0
-896 -930 0
-896 -931 0
-896 -932 0
-896 -933 0
-896 -934 0
-896 -935 0
-896 -936 0
-896 -937 0
-896 -938 0
-896 -939 0
-896 -940 0
-896 -941 0
-896 -942 0
-896 -943 0
-896 -944 0
-896 -945 0
-896 -946 0
-896 -947 0
-896 -948 0
-896 -949 0
-896 -950 0
-896 -951 0
-896 -952 0
-896 -953 0
-896 -954 0
-896 -955 0
-896 -956 0
-896 -957 0
-896 -958 0
-896 -959 0
-896 -960 0
-896 -961 0
-896 -962 0
-896 -963 0
-896 -964 0
-896 -965 0
-896 -966 0
-896 -967 0
-896 -968 0
-896 -969 0
-896 -970 0
-896 -971 0
-896 -972 0
-896 -973 0
-896 -974 0
-896 -975 0
-896 -976 0
-896 -977 0
-896 -978 0
-897 -898 0
-897 -899 0
-897 -900 0
-897 -901 0
-897 -902 0
-897 -903 0
-897 -904 0
-897 -905 0
-897 -906 0
-897 -907 0
-897 -908 0
-897 -909 0
-897 -910 0
-897 -911 0
-897 -912 0
-897 -913 0
-897 -914 0
-897 -915 0
-897 -916 0
-897 -917 0
-897 -918 0
-897 -919 0
-897 -920 0
-897 -921 0
-897 -922 0
-897 -923 0
-897 -924 0
-897 -925 0
-897 -926 0
-897 -927 0
-897 -928 0
-897 -929 0
-897 -930 0
-897 -931 0
-897 -932 0
-897 -933 0
-897 -934 0
-897 -935 0
-897 -936 0
-897 -937 0
-897 -938 0
-897 -939 0
-897 -940 0
-897 -941 0
-897 -942 0
-897 -943 0
-897 -944 0
-897 -945 0
-897 -946 0
-897 -947 0
-897 -948 0
-897 -949 0
-897 -950 0
-897 -951 0
-897 -952 0
-897 -953 0
-897 -954 0
-897 -955 0
-897 -956 0
-897 -957 0
-897 -958 0
-897 -959 0
-897 -960 0
-897 -961 0
-897 -962 0
-897 -963 0
-897 -964 0
-897 -965 0
-897 -966 0
-897 -967 0
-897 -968 0
-897 -969 0
-897 -970 0
-897 -971 0
-897 -972 0
-897 -973 0
-897 -974 0
-897 -975 0
-897 -976 0
-897 -977 0
-897 -978 0
-898 -899 0
-898 -900 0
-898 -901 0
-898 -902 0
-898 -903 0
-898 -904 0
-898 -905 0
-898 -906 0
-898 -907 0
-898 -908 0
-898 -909 0
-898 -910 0
-898 -911 0
-898 -912 0
-898 -913 0
-898 -914 0
-898 -915 0
-898 -916 0
-898 -917 0
-898 -918 0
-898 -919 0
-898 -920 0
-898 -921 0
-898 -922 0
-898 -923 0
-898 -924 0
-898 -925 0
-898 -926 0
-898 -927 0
-898 -928 0
-898 -929 0
-898 -930 0
-898 -931 0
-898 -932 0
-898 -933 0
-898 -934 0
-898 -935 0
-898 -936 0
-898 -937 0
-898 -938 0
-898 -939 0
-898 -940 0
-898 -941 0
-898 -942 0
-898 -943 0
-898 -944 0
-898 -945 0
-898 -946 0
-898 -947 0
-898 -948 0
-898 -949 0
-898 -950 0
-898 -951 0
-898 -952 0
-898 -953 0
-898 -954 0
-898 -955 0
-898 -956 0
-898 -957 0
-898 -958 0
-898 -959 0
-898 -960 0
-898 -961 0
-898 -962 0
-898 -963 0
-898 -964 0
-898 -965 0
-898 -966 0
-898 -967 0
-898 -968 0
-898 -969 0
-898 -970 0
-898 -971 0
-898 -972 0
-898 -973 0
-898 -974 0
-898 -975 0
-898 -976 0
-898 -977 0
-898 -978 0
-899 -900 0
-899 -901 0
-899 -902 0
-899 -903 0
-899 -904 0
-899 -905 0
-899 -906 0
-899 -907 0
-899 -908 0
-899 -909 0
-899 -910 0
-899 -911 0
-899 -912 0
-899 -913 0
-899 -914 0
-899 -915 0
-899 -916 0
-899 -917 0
-899 -918 0
-899 -919 0
-899 -920 0
-899 -921 0
-899 -922 0
-899 -923 0
-899 -924 0
-899 -925 0
-899 -926 0
-899 -927 0
-899 -928 0
-899 -929 0
-899 -930 0
-899 -931 0
-899 -932 0
-899 -933 0
-899 -934 0
-899 -935 0
-899 -936 0
-899 -937 0
-899 -938 0
-899 -939 0
-899 -940 0
-899 -941 0
-899 -942 0
-899 -943 0
-899 -944 0
-899 -945 0
-899 -946 0
-899 -947 0
-899 -948 0
-899 -949 0
-899 -950 0
-899 -951 0
-899 -952 0
-899 -953 0
-899 -954 0
-899 -955 0
-899 -956 0
-899 -957 0
-899 -958 0
-899 -959 0
-899 -960 0
-899 -961 0
-899 -962 0
-899 -963 0
-899 -964 0
-899 -965 0
-899 -966 0
-899 -967 0
-899 -968 0
-899 -969 0
-899 -970 0
-899 -971 0
-899 -972 0
-899 -973 0
-899 -974 0
-899 -975 0
-899 -976 0
-899 -977 0
-899 -978 0
-900 -901 0
-900 -902 0
-900 -903 0
-900 -904 0
-900 -905 0
-900 -906 0
-900 -907 0
-900 -908 0
-900 -909 0
-900 -910 0
-900 -911 0
-900 -912 0
-900 -913 0
-900 -914 0
-900 -915 0
-900 -916 0
-900 -917 0
-900 -918 0
-900 -919 0
-900 -920 0
-900 -921 0
-900 -922 0
-900 -923 0
-900 -924 0
-900 -925 0
-900 -926 0
-900 -927 0
-900 -928 0
-900 -929 0
-900 -930 0
-900 -931 0
-900 -932 0
-900 -933 0
-900 -934 0
-900 -935 0
-900 -936 0
-900 -937 0
-900 -938 0
-900 -939 0
-900 -940 0
-900 -941 0
-900 -942 0
-900 -943 0
-900 -944 0
-900 -945 0
-900 -946 0
-900 -947 0
-900 -948 0
-900 -949 0
-900 -950 0
-900 -951 0
-900 -952 0
-900 -953 0
-900 -954 0
-900 -955 0
-900 -956 0
-900 -957 0
-900 -958 0
-900 -959 0
-900 -960 0
-900 -961 0
-900 -962 0
-900 -963 0
-900 -964 0
-900 -965 0
-900 -966 0
-900 -967 0
-900 -968 0
-900 -969 0
-900 -970 0
-900 -971 0
-900 -972 0
-900 -973 0
-900 -974 0
-900 -975 0
-900 -976 0
-900 -977 0
-900 -978 0
-901 -902 0
-901 -903 0
-901 -904 0
-901 -905 0
-901 -906 0
-901 -907 0
-901 -908 0
-901 -909 0
-901 -910 0
-901 -911 0
-901 -912 0
-901 -913 0
-901 -914 0
-901 -915 0
-901 -916 0
-901 -917 0
-901 -918 0
-901 -919 0
-901 -920 0
-901 -921 0
-901 -922 0
-901 -923 0
-901 -924 0
-901 -925 0
-901 -926 0
-901 -927 0
-901 -928 0
-901 -929 0
-901 -930 0
-901 -931 0
-901 -932 0
-901 -933 0
-901 -934 0
-901 -935 0
-901 -936 0
-901 -937 0
-901 -938 0
-901 -939 0
-901 -940 0
-901 -941 0
-901 -942 0
-901 -943 0
-901 -944 0
-901 -945 0
-901 -946 0
-901 -947 0
-901 -948 0
-901 -949 0
-901 -950 0
-901 -951 0
-901 -952 0
-901 -953 0
-901 -954 0
-901 -955 0
-901 -956 0
-901 -957 0
-901 -958 0
-901 -959 0
-901 -960 0
-901 -961 0
-901 -962 0
-901 -963 0
-901 -964 0
-901 -965 0
-901 -966 0
-901 -967 0
-901 -968 0
-901 -969 0
-901 -970 0
-901 -971 0
-901 -972 0
-901 -973 0
-901 -974 0
-901 -975 0
-901 -976 0
-901 -977 0
-901 -978 0
-902 -903 0
-902 -904 0
-902 -905 0
-902 -906 0
-902 -907 0
-902 -908 0
-902 -909 0
-902 -910 0
-902 -911 0
-902 -912 0
-902 -913 0
-902 -914 0
-902 -915 0
-902 -916 0
-902 -917 0
-902 -918 0
-902 -919 0
-902 -920 0
-902 -921 0
-902 -922 0
-902 -923 0
-902 -924 0
-902 -925 0
-902 -926 0
-902 -927 0
-902 -928 0
-902 -929 0
-902 -930 0
-902 -931 0
-902 -932 0
-902 -933 0
-902 -934 0
-902 -935 0
-902 -936 0
-902 -937 0
-902 -938 0
-902 -939 0
-902 -940 0
-902 -941 0
-902 -942 0
-902 -943 0
-902 -944 0
-902 -945 0
-902 -946 0
-902 -947 0
-902 -948 0
-902 -949 0
-902 -950 0
-902 -951 0
-902 -952 0
-902 -953 0
-902 -954 0
-902 -955 0
-902 -956 0
-902 -957 0
-902 -958 0
-902 -959 0
-902 -960 0
-902 -961 0
-902 -962 0
-902 -963 0
-902 -964 0
-902 -965 0
-902 -966 0
-902 -967 0
-902 -968 0
-902 -969 0
-902 -970 0
-902 -971 0
-902 -972 0
-902 -973 0
-902 -974 0
-902 -975 0
-902 -976 0
-902 -977 0
-902 -978 0
-903 -904 0
-903 -905 0
-903 -906 0
-903 -907 0
-903 -908 0
-903 -909 0
-903 -910 0
-903 -911 0
-903 -912 0
-903 -913 0
-903 -914 0
-903 -915 0
-903 -916 0
-903 -917 0
-903 -918 0
-903 -919 0
-903 -920 0
-903 -921 0
-903 -922 0
-903 -923 0
-903 -924 0
-903 -925 0
-903 -926 0
-903 -927 0
-903 -928 0
-903 -929 0
-903 -930 0
-903 -931 0
-903 -932 0
-903 -933 0
-903 -934 0
-903 -935 0
-903 -936 0
-903 -937 0
-903 -938 0
-903 -939 0
-903 -940 0
-903 -941 0
-903 -942 0
-903 -943 0
-903 -944 0
-903 -945 0
-903 -946 0
-903 -947 0
-903 -948 0
-903 -949 0
-903 -950 0
-903 -951 0
-903 -952 0
-903 -953 0
-903 -954 0
-903 -955 0
-903 -956 0
-903 -957 0
-903 -958 0
-903 -959 0
-903 -960 0
-903 -961 0
-903 -962 0
-903 -963 0
-903 -964 0
-903 -965 0
-903 -966 0
-903 -967 0
-903 -968 0
-903 -969 0
-903 -970 0
-903 -971 0
-903 -972 0
-903 -973 0
-903 -974 0
-903 -975 0
-903 -976 0
-903 -977 0
-903 -978 0
-904 -905 0
-904 -906 0
-904 -907 0
-904 -908 0
-904 -909 0
-904 -910 0
-904 -911 0
-904 -912 0
-904 -913 0
-904 -914 0
-904 -915 0
-904 -916 0
-904 -917 0
-904 -918 0
-904 -919 0
-904 -920 0
-904 -921 0
-904 -922 0
-904 -923 0
-904 -924 0
-904 -925 0
-904 -926 0
-904 -927 0
-904 -928 0
-904 -929 0
-904 -930 0
-904 -931 0
-904 -932 0
-904 -933 0
-904 -934 0
-904 -935 0
-904 -936 0
-904 -937 0
-904 -938 0
-904 -939 0
-904 -940 0
-904 -941 0
-904 -942 0
-904 -943 0
-904 -944 0
-904 -945 0
-904 -946 0
-904 -947 0
-904 -948 0
-904 -949 0
-904 -950 0
-904 -951 0
-904 -952 0
-904 -953 0
-904 -954 0
-904 -955 0
-904 -956 0
-904 -957 0
-904 -958 0
-904 -959 0
-904 -960 0
-904 -961 0
-904 -962 0
-904 -963 0
-904 -964 0
-904 -965 0
-904 -966 0
-904 -967 0
-904 -968 0
-904 -969 0
-904 -970 0
-904 -971 0
-904 -972 0
-904 -973 0
-904 -974 0
-904 -975 0
-904 -976 0
-904 -977 0
-904 -978 0
-905 -906 0
-905 -907 0
-905 -908 0
-905 -909 0
-905 -910 0
-905 -911 0
-905 -912 0
-905 -913 0
-905 -914 0
-905 -915 0
-905 -916 0
-905 -917 0
-905 -918 0
-905 -919 0
-905 -920 0
-905 -921 0
-905 -922 0
-905 -923 0
-905 -924 0
-905 -925 0
-905 -926 0
-905 -927 0
-905 -928 0
-905 -929 0
-905 -930 0
-905 -931 0
-905 -932 0
-905 -933 0
-905 -934 0
-905 -935 0
-905 -936 0
-905 -937 0
-905 -938 0
-905 -939 0
-905 -940 0
-905 -941 0
-905 -942 0
-905 -943 0
-905 -944 0
-905 -945 0
-905 -946 0
-905 -947 0
-905 -948 0
-905 -949 0
-905 -950 0
-905 -951 0
-905 -952 0
-905 -953 0
-905 -954 0
-905 -955 0
-905 -956 0
-905 -957 0
-905 -958 0
-905 -959 0
-905 -960 0
-905 -961 0
-905 -962 0
-905 -963 0
-905 -964 0
-905 -965 0
-905 -966 0
-905 -967 0
-905 -968 0
-905 -969 0
-905 -970 0
-905 -971 0
-905 -972 0
-905 -973 0
-905 -974 0
-905 -975 0
-905 -976 0
-905 -977 0
-905 -978 0
-906 -907 0
-906 -908 0
-906 -909 0
-906 -910 0
-906 -911 0
-906 -912 0
-906 -913 0
-906 -914 0
-906 -915 0
-906 -916 0
-906 -917 0
-906 -918 0
-906 -919 0
-906 -920 0
-906 -921 0
-906 -922 0
-906 -923 0
-906 -924 0
-906 -925 0
-906 -926 0
-906 -927 0
-906 -928 0
-906 -929 0
-906 -930 0
-906 -931 0
-906 -932 0
-906 -933 0
-906 -934 0
-906 -935 0
-906 -936 0
-906 -937 0
-906 -938 0
-906 -939 0
-906 -940 0
-906 -941 0
-906 -942 0
-906 -943 0
-906 -944 0
-906 -945 0
-906 -946 0
-906 -947 0
-906 -948 0
-906 -949 0
-906 -950 0
-906 -951 0
-906 -952 0
-906 -953 0
-906 -954 0
-906 -955 0
-906 -956 0
-906 -957 0
-906 -958 0
-906 -959 0
-906 -960 0
-906 -961 0
-906 -962 0
-906 -963 0
-906 -964 0
-906 -965 0
-906 -966 0
-906 -967 0
-906 -968 0
-906 -969 0
-906 -970 0
-906 -971 0
-906 -972 0
-906 -973 0
-906 -974 0
-906 -975 0
-906 -976 0
-906 -977 0
-906 -978 0
-907 -908 0
-907 -909 0
-907 -910 0
-907 -911 0
-907 -912 0
-907 -913 0
-907 -914 0
-907 -915 0
-907 -916 0
-907 -917 0
-907 -918 0
-907 -919 0
-907 -920 0
-907 -921 0
-907 -922 0
-907 -923 0
-907 -924 0
-907 -925 0
-907 -926 0
-907 -927 0
-907 -928 0
-907 -929 0
-907 -930 0
-907 -931 0
-907 -932 0
-907 -933 0
-907 -934 0
-907 -935 0
-907 -936 0
-907 -937 0
-907 -938 0
-907 -939 0
-907 -940 0
-907 -941 0
-907 -942 0
-907 -943 0
-907 -944 0
-907 -945 0
-907 -946 0
-907 -947 0
-907 -948 0
-907 -949 0
-907 -950 0
-907 -951 0
-907 -952 0
-907 -953 0
-907 -954 0
-907 -955 0
-907 -956 0
-907 -957 0
-907 -958 0
-907 -959 0
-907 -960 0
-907 -961 0
-907 -962 0
-907 -963 0
-907 -964 0
-907 -965 0
-907 -966 0
-907 -967 0
-907 -968 0
-907 -969 0
-907 -970 0
-907 -971 0
-907 -972 0
-907 -973 0
-907 -974 0
-907 -975 0
-907 -976 0
-907 -977 0
-907 -978 0
-908 -909 0
-908 -910 0
-908 -911 0
-908 -912 0
-908 -913 0
-908 -914 0
-908 -915 0
-908 -916 0
-908 -917 0
-908 -918 0
-908 -919 0
-908 -920 0
-908 -921 0
-908 -922 0
-908 -923 0
-908 -924 0
-908 -925 0
-908 -926 0
-908 -927 0
-908 -928 0
-908 -929 0
-908 -930 0
-908 -931 0
-908 -932 0
-908 -933 0
-908 -934 0
-908 -935 0
-908 -936 0
-908 -937 0
-908 -938 0
-908 -939 0
-908 -940 0
-908 -941 0
-908 -942 0
-908 -943 0
-908 -944 0
-908 -945 0
-908 -946 0
-908 -947 0
-908 -948 0
-908 -949 0
-908 -950 0
-908 -951 0
-908 -952 0
-908 -953 0
-908 -954 0
-908 -955 0
-908 -956 0
-908 -957 0
-908 -958 0
-908 -959 0
-908 -960 0
-908 -961 0
-908 -962 0
-908 -963 0
-908 -964 0
-908 -965 0
-908 -966 0
-908 -967 0
-908 -968 0
-908 -969 0
-908 -970 0
-908 -971 0
-908 -972 0
-908 -973 0
-908 -974 0
-908 -975 0
-908 -976 0
-908 -977 0
-908 -978 0
-909 -910 0
-909 -911 0
-909 -912 0
-909 -913 0
-909 -914 0
-909 -915 0
-909 -916 0
-909 -917 0
-909 -918 0
-909 -919 0
-909 -920 0
-909 -921 0
-909 -922 0
-909 -923 0
-909 -924 0
-909 -925 0
-909 -926 0
-909 -927 0
-909 -928 0
-909 -929 0
-909 -930 0
-909 -931 0
-909 -932 0
-909 -933 0
-909 -934 0
-909 -935 0
-909 -936 0
-909 -937 0
-909 -938 0
-909 -939 0
-909 -940 0
-909 -941 0
-909 -942 0
-909 -943 0
-909 -944 0
-909 -945 0
-909 -946 0
-909 -947 0
-909 -948 0
-909 -949 0
-909 -950 0
-909 -951 0
-909 -952 0
-909 -953 0
-909 -954 0
-909 -955 0
-909 -956 0
-909 -957 0
-909 -958 0
-909 -959 0
-909 -960 0
-909 -961 0
-909 -962 0
-909 -963 0
-909 -964 0
-909 -965 0
-909 -966 0
-909 -967 0
-909 -968 0
-909 -969 0
-909 -970 0
-909 -971 0
-909 -972 0
-909 -973 0
-909 -974 0
-909 -975 0
-909 -976 0
-909 -977 0
-909 -978 0
-910 -911 0
-910 -912 0
-910 -913 0
-910 -914 0
-910 -915 0
-910 -916 0
-910 -917 0
-910 -918 0
-910 -919 0
-910 -920 0
-910 -921 0
-910 -922 0
-910 -923 0
-910 -924 0
-910 -925 0
-910 -926 0
-910 -927 0
-910 -928 0
-910 -929 0
-910 -930 0
-910 -931 0
-910 -932 0
-910 -933 0
-910 -934 0
-910 -935 0
-910 -936 0
-910 -937 0
-910 -938 0
-910 -939 0
-910 -940 0
-910 -941 0
-910 -942 0
-910 -943 0
-910 -944 0
-910 -945 0
-910 -946 0
-910 -947 0
-910 -948 0
-910 -949 0
-910 -950 0
-910 -951 0
-910 -952 0
-910 -953 0
-910 -954 0
-910 -955 0
-910 -956 0
-910 -957 0
-910 -958 0
-910 -959 0
-910 -960 0
-910 -961 0
-910 -962 0
-910 -963 0
-910 -964 0
-910 -965 0
-910 -966 0
-910 -967 0
-910 -968 0
-910 -969 0
-910 -970 0
-910 -971 0
-910 -972 0
-910 -973 0
-910 -974 0
-910 -975 0
-910 -976 0
-910 -977 0
-910 -978 0
-911 -912 0
-911 -913 0
-911 -914 0
-911 -915 0
-911 -916 0
-911 -917 0
-911 -918 0
-911 -919 0
-911 -920 0
-911 -921 0
-911 -922 0
-911 -923 0
-911 -924 0
-911 -925 0
-911 -926 0
-911 -927 0
-911 -928 0
-911 -929 0
-911 -930 0
-911 -931 0
-911 -932 0
-911 -933 0
-911 -934 0
-911 -935 0
-911 -936 0
-911 -937 0
-911 -938 0
-911 -939 0
-911 -940 0
-911 -941 0
-911 -942 0
-911 -943 0
-911 -944 0
-911 -945 0
-911 -946 0
-911 -947 0
-911 -948 0
-911 -949 0
-911 -950 0
-911 -951 0
-911 -952 0
-911 -953 0
-911 -954 0
-911 -955 0
-911 -956 0
-911 -957 0
-911 -958 0
-911 -959 0
-911 -960 0
-911 -961 0
-911 -962 0
-911 -963 0
-911 -964 0
-911 -965 0
-911 -966 0
-911 -967 0
-911 -968 0
-911 -969 0
-911 -970 0
-911 -971 0
-911 -972 0
-911 -973 0
-911 -974 0
-911 -975 0
-911 -976 0
-911 -977 0
-911 -978 0
-912 -913 0
-912 -914 0
-912 -915 0
-912 -916 0
-912 -917 0
-912 -918 0
-912 -919 0
-912 -920 0
-912 -921 0
-912 -922 0
-912 -923 0
-912 -924 0
-912 -925 0
-912 -926 0
-912 -927 0
-912 -928 0
-912 -929 0
-912 -930 0
-912 -931 0
-912 -932 0
-912 -933 0
-912 -934 0
-912 -935 0
-912 -936 0
-912 -937 0
-912 -938 0
-912 -939 0
-912 -940 0
-912 -941 0
-912 -942 0
-912 -943 0
-912 -944 0
-912 -945 0
-912 -946 0
-912 -947 0
-912 -948 0
-912 -949 0
-912 -950 0
-912 -951 0
-912 -952 0
-912 -953 0
-912 -954 0
-912 -955 0
-912 -956 0
-912 -957 0
-912 -958 0
-912 -959 0
-912 -960 0
-912 -961 0
-912 -962 0
-912 -963 0
-912 -964 0
-912 -965 0
-912 -966 0
-912 -967 0
-912 -968 0
-912 -969 0
-912 -970 0
-912 -971 0
-912 -972 0
-912 -973 0
-912 -974 0
-912 -975 0
-912 -976 0
-912 -977 0
-912 -978 0
-913 -914 0
-913 -915 0
-913 -916 0
-913 -917 0
-913 -918 0
-913 -919 0
-913 -920 0
-913 -921 0
-913 -922 0
-913 -923 0
-913 -924 0
-913 -925 0
-913 -926 0
-913 -927 0
-913 -928 0
-913 -929 0
-913 -930 0
-913 -931 0
-913 -932 0
-913 -933 0
-913 -934 0
-913 -935 0
-913 -936 0
-913 -937 0
-913 -938 0
-913 -939 0
-913 -940 0
-913 -941 0
-913 -942 0
-913 -943 0
-913 -944 0
-913 -945 0
-913 -946 0
-913 -947 0
-913 -948 0
-913 -949 0
-913 -950 0
-913 -951 0
-913 -952 0
-913 -953 0
-913 -954 0
-913 -955 0
-913 -956 0
-913 -957 0
-913 -958 0
-913 -959 0
-913 -960 0
-913 -961 0
-913 -962 0
-913 -963 0
-913 -964 0
-913 -965 0
-913 -966 0
-913 -967 0
-913 -968 0
-913 -969 0
-913 -970 0
-913 -971 0
-913 -972 0
-913 -973 0
-913 -974 0
-913 -975 0
-913 -976 0
-913 -977 0
-913 -978 0
-914 -915 0
-914 -916 0
-914 -917 0
-914 -918 0
-914 -919 0
-914 -920 0
-914 -921 0
-914 -922 0
-914 -923 0
-914 -924 0
-914 -925 0
-914 -926 0
-914 -927 0
-914 -928 0
-914 -929 0
-914 -930 0
-914 -931 0
-914 -932 0
-914 -933 0
-914 -934 0
-914 -935 0
-914 -936 0
-914 -937 0
-914 -938 0
-914 -939 0
-914 -940 0
-914 -941 0
-914 -942 0
-914 -943 0
-914 -944 0
-914 -945 0
-914 -946 0
-914 -947 0
-914 -948 0
-914 -949 0
-914 -950 0
-914 -951 0
-914 -952 0
-914 -953 0
-914 -954 0
-914 -955 0
-914 -956 0
-914 -957 0
-914 -958 0
-914 -959 0
-914 -960 0
-914 -961 0
-914 -962 0
-914 -963 0
-914 -964 0
-914 -965 0
-914 -966 0
-914 -967 0
-914 -968 0
-914 -969 0
-914 -970 0
-914 -971 0
-914 -972 0
-914 -973 0
-914 -974 0
-914 -975 0
-914 -976 0
-914 -977 0
-914 -978 0
-915 -916 0
-915 -917 0
-915 -918 0
-915 -919 0
-915 -920 0
-915 -921 0
-915 -922 0
-915 -923 0
-915 -924 0
-915 -925 0
-915 -926 0
-915 -927 0
-915 -928 0
-915 -929 0
-915 -930 0
-915 -931 0
-915 -932 0
-915 -933 0
-915 -934 0
-915 -935 0
-915 -936 0
-915 -937 0
-915 -938 0
-915 -939 0
-915 -940 0
-915 -941 0
-915 -942 0
-915 -943 0
-915 -944 0
-915 -945 0
-915 -946 0
-915 -947 0
-915 -948 0
-915 -949 0
-915 -950 0
-915 -951 0
-915 -952 0
-915 -953 0
-915 -954 0
-915 -955 0
-915 -956 0
-915 -957 0
-915 -958 0
-915 -959 0
-915 -960 0
-915 -961 0
-915 -962 0
-915 -963 0
-915 -964 0
-915 -965 0
-915 -966 0
-915 -967 0
-915 -968 0
-915 -969 0
-915 -970 0
-915 -971 0
-915 -972 0
-915 -973 0
-915 -974 0
-915 -975 0
-915 -976 0
-915 -977 0
-915 -978 0
-916 -917 0
-916 -918 0
-916 -919 0
-916 -920 0
-916 -921 0
-916 -922 0
-916 -923 0
-916 -924 0
-916 -925 0
-916 -926 0
-916 -927 0
-916 -928 0
-916 -929 0
-916 -930 0
-916 -931 0
-916 -932 0
-916 -933 0
-916 -934 0
-916 -935 0
-916 -936 0
-916 -937 0
-916 -938 0
-916 -939 0
-916 -940 0
-916 -941 0
-916 -942 0
-916 -943 0
-916 -944 0
-916 -945 0
-916 -946 0
-916 -947 0
-916 -948 0
-916 -949 0
-916 -950 0
-916 -951 0
-916 -952 0
-916 -953 0
-916 -954 0
-916 -955 0
-916 -956 0
-916 -957 0
-916 -958 0
-916 -959 0
-916 -960 0
-916 -961 0
-916 -962 0
-916 -963 0
-916 -964 0
-916 -965 0
-916 -966 0
-916 -967 0
-916 -968 0
-916 -969 0
-916 -970 0
-916 -971 0
-916 -972 0
-916 -973 0
-916 -974 0
-916 -975 0
-916 -976 0
-916 -977 0
-916 -978 0
-917 -918 0
-917 -919 0
-917 -920 0
-917 -921 0
-917 -922 0
-917 -923 0
-917 -924 0
-917 -925 0
-917 -926 0
-917 -927 0
-917 -928 0
-917 -929 0
-917 -930 0
-917 -931 0
-917 -932 0
-917 -933 0
-917 -934 0
-917 -935 0
-917 -936 0
-917 -937 0
-917 -938 0
-917 -939 0
-917 -940 0
-917 -941 0
-917 -942 0
-917 -943 0
-917 -944 0
-917 -945 0
-917 -946 0
-917 -947 0
-917 -948 0
-917 -949 0
-917 -950 0
-917 -951 0
-917 -952 0
-917 -953 0
-917 -954 0
-917 -955 0
-917 -956 0
-917 -957 0
-917 -958 0
-917 -959 0
-917 -960 0
-917 -961 0
-917 -962 0
-917 -963 0
-917 -964 0
-917 -965 0
-917 -966 0
-917 -967 0
-917 -968 0
-917 -969 0
-917 -970 0
-917 -971 0
-917 -972 0
-917 -973 0
-917 -974 0
-917 -975 0
-917 -976 0
-917 -977 0
-917 -978 0
-918 -919 0
-918 -920 0
-918 -921 0
-918 -922 0
-918 -923 0
-918 -924 0
-918 -925 0
-918 -926 0
-918 -927 0
-918 -928 0
-918 -929 0
-918 -930 0
-918 -931 0
-918 -932 0
-918 -933 0
-918 -934 0
-918 -935 0
-918 -936 0
-918 -937 0
-918 -938 0
-918 -939 0
-918 -940 0
-918 -941 0
-918 -942 0
-918 -943 0
-918 -944 0
-918 -945 0
-918 -946 0
-918 -947 0
-918 -948 0
-918 -949 0
-918 -950 0
-918 -951 0
-918 -952 0
-918 -953 0
-918 -954 0
-918 -955 0
-918 -956 0
-918 -957 0
-918 -958 0
-918 -959 0
-918 -960 0
-918 -961 0
-918 -962 0
-918 -963 0
-918 -964 0
-918 -965 0
-918 -966 0
-918 -967 0
-918 -968 0
-918 -969 0
-918 -970 0
-918 -971 0
-918 -972 0
-918 -973 0
-918 -974 0
-918 -975 0
-918 -976 0
-918 -977 0
-918 -978 0
-919 -920 0
-919 -921 0
-919 -922 0
-919 -923 0
-919 -924 0
-919 -925 0
-919 -926 0
-919 -927 0
-919 -928 0
-919 -929 0
-919 -930 0
-919 -931 0
-919 -932 0
-919 -933 0
-919 -934 0
-919 -935 0
-919 -936 0
-919 -937 0
-919 -938 0
-919 -939 0
-919 -940 0
-919 -941 0
-919 -942 0
-919 -943 0
-919 -944 0
-919 -945 0
-919 -946 0
-919 -947 0
-919 -948 0
-919 -949 0
-919 -950 0
-919 -951 0
-919 -952 0
-919 -953 0
-919 -954 0
-919 -955 0
-919 -956 0
-919 -957 0
-919 -958 0
-919 -959 0
-919 -960 0
-919 -961 0
-919 -962 0
-919 -963 0
-919 -964 0
-919 -965 0
-919 -966 0
-919 -967 0
-919 -968 0
-919 -969 0
-919 -970 0
-919 -971 0
-919 -972 0
-919 -973 0
-919 -974 0
-919 -975 0
-919 -976 0
-919 -977 0
-919 -978 0
-920 -921 0
-920 -922 0
-920 -923 0
-920 -924 0
-920 -925 0
-920 -926 0
-920 -927 0
-920 -928 0
-920 -929 0
-920 -930 0
-920 -931 0
-920 -932 0
-920 -933 0
-920 -934 0
-920 -935 0
-920 -936 0
-920 -937 0
-920 -938 0
-920 -939 0
-920 -940 0
-920 -941 0
-920 -942 0
-920 -943 0
-920 -944 0
-920 -945 0
-920 -946 0
-920 -947 0
-920 -948 0
-920 -949 0
-920 -950 0
-920 -951 0
-920 -952 0
-920 -953 0
-920 -954 0
-920 -955 0
-920 -956 0
-920 -957 0
-920 -958 0
-920 -959 0
-920 -960 0
-920 -961 0
-920 -962 0
-920 -963 0
-920 -964 0
-920 -965 0
-920 -966 0
-920 -967 0
-920 -968 0
-920 -969 0
-920 -970 0
-920 -971 0
-920 -972 0
-920 -973 0
-920 -974 0
-920 -975 0
-920 -976 0
-920 -977 0
-920 -978 0
-921 -922 0
-921 -923 0
-921 -924 0
-921 -925 0
-921 -926 0
-921 -927 0
-921 -928 0
-921 -929 0
-921 -930 0
-921 -931 0
-921 -932 0
-921 -933 0
-921 -934 0
-921 -935 0
-921 -936 0
-921 -937 0
-921 -938 0
-921 -939 0
-921 -940 0
-921 -941 0
-921 -942 0
-921 -943 0
-921 -944 0
-921 -945 0
-921 -946 0
-921 -947 0
-921 -948 0
-921 -949 0
-921 -950 0
-921 -951 0
-921 -952 0
-921 -953 0
-921 -954 0
-921 -955 0
-921 -956 0
-921 -957 0
-921 -958 0
-921 -959 0
-921 -960 0
-921 -961 0
-921 -962 0
-921 -963 0
-921 -964 0
-921 -965 0
-921 -966 0
-921 -967 0
-921 -968 0
-921 -969 0
-921 -970 0
-921 -971 0
-921 -972 0
-921 -973 0
-921 -974 0
-921 -975 0
-921 -976 0
-921 -977 0
-921 -978 0
-922 -923 0
-922 -924 0
-922 -925 0
-922 -926 0
-922 -927 0
-922 -928 0
-922 -929 0
-922 -930 0
-922 -931 0
-922 -932 0
-922 -933 0
-922 -934 0
-922 -935 0
-922 -936 0
-922 -937 0
-922 -938 0
-922 -939 0
-922 -940 0
-922 -941 0
-922 -942 0
-922 -943 0
-922 -944 0
-922 -945 0
-922 -946 0
-922 -947 0
-922 -948 0
-922 -949 0
-922 -950 0
-922 -951 0
-922 -952 0
-922 -953 0
-922 -954 0
-922 -955 0
-922 -956 0
-922 -957 0
-922 -958 0
-922 -959 0
-922 -960 0
-922 -961 0
-922 -962 0
-922 -963 0
-922 -964 0
-922 -965 0
-922 -966 0
-922 -967 0
-922 -968 0
-922 -969 0
-922 -970 0
-922 -971 0
-922 -972 0
-922 -973 0
-922 -974 0
-922 -975 0
-922 -976 0
-922 -977 0
-922 -978 0
-923 -924 0
-923 -925 0
-923 -926 0
-923 -927 0
-923 -928 0
-923 -929 0
-923 -930 0
-923 -931 0
-923 -932 0
-923 -933 0
-923 -934 0
-923 -935 0
-923 -936 0
-923 -937 0
-923 -938 0
-923 -939 0
-923 -940 0
-923 -941 0
-923 -942 0
-923 -943 0
-923 -944 0
-923 -945 0
-923 -946 0
-923 -947 0
-923 -948 0
-923 -949 0
-923 -950 0
-923 -951 0
-923 -952 0
-923 -953 0
-923 -954 0
-923 -955 0
-923 -956 0
-923 -957 0
-923 -958 0
-923 -959 0
-923 -960 0
-923 -961 0
-923 -962 0
-923 -963 0
-923 -964 0
-923 -965 0
-923 -966 0
-923 -967 0
-923 -968 0
-923 -969 0
-923 -970 0
-923 -971 0
-923 -972 0
-923 -973 0
-923 -974 0
-923 -975 0
-923 -976 0
-923 -977 0
-923 -978 0
-924 -925 0
-924 -926 0
-924 -927 0
-924 -928 0
-924 -929 0
-924 -930 0
-924 -931 0
-924 -932 0
-924 -933 0
-924 -934 0
-924 -935 0
-924 -936 0
-924 -937 0
-924 -938 0
-924 -939 0
-924 -940 0
-924 -941 0
-924 -942 0
-924 -943 0
-924 -944 0
-924 -945 0
-924 -946 0
-924 -947 0
-924 -948 0
-924 -949 0
-924 -950 0
-924 -951 0
-924 -952 0
-924 -953 0
-924 -954 0
-924 -955 0
-924 -956 0
-924 -957 0
-924 -958 0
-924 -959 0
-924 -960 0
-924 -961 0
-924 -962 0
-924 -963 0
-924 -964 0
-924 -965 0
-924 -966 0
-924 -967 0
-924 -968 0
-924 -969 0
-924 -970 0
-924 -971 0
-924 -972 0
-924 -973 0
-924 -974 0
-924 -975 0
-924 -976 0
-924 -977 0
-924 -978 0
-925 -926 0
-925 -927 0
-925 -928 0
-925 -929 0
-925 -930 0
-925 -931 0
-925 -932 0
-925 -933 0
-925 -934 0
-925 -935 0
-925 -936 0
-925 -937 0
-925 -938 0
-925 -939 0
-925 -940 0
-925 -941 0
-925 -942 0
-925 -943 0
-925 -944 0
-925 -945 0
-925 -946 0
-925 -947 0
-925 -948 0
-925 -949 0
-925 -950 0
-925 -951 0
-925 -952 0
-925 -953 0
-925 -954 0
-925 -955 0
-925 -956 0
-925 -957 0
-925 -958 0
-925 -959 0
-925 -960 0
-925 -961 0
-925 -962 0
-925 -963 0
-925 -964 0
-925 -965 0
-925 -966 0
-925 -967 0
-925 -968 0
-925 -969 0
-925 -970 0
-925 -971 0
-925 -972 0
-925 -973 0
-925 -974 0
-925 -975 0
-925 -976 0
-925 -977 0
-925 -978 0
-926 -927 0
-926 -928 0
-926 -929 0
-926 -930 0
-926 -931 0
-926 -932 0
-926 -933 0
-926 -934 0
-926 -935 0
-926 -936 0
-926 -937 0
-926 -938 0
-926 -939 0
-926 -940 0
-926 -941 0
-926 -942 0
-926 -943 0
-926 -944 0
-926 -945 0
-926 -946 0
-926 -947 0
-926 -948 0
-926 -949 0
-926 -950 0
-926 -951 0
-926 -952 0
-926 -953 0
-926 -954 0
-926 -955 0
-926 -956 0
-926 -957 0
-926 -958 0
-926 -959 0
-926 -960 0
-926 -961 0
-926 -962 0
-926 -963 0
-926 -964 0
-926 -965 0
-926 -966 0
-926 -967 0
-926 -968 0
-926 -969 0
-926 -970 0
-926 -971 0
-926 -972 0
-926 -973 0
-926 -974 0
-926 -975 0
-926 -976 0
-926 -977 0
-926 -978 0
-927 -928 0
-927 -929 0
-927 -930 0
-927 -931 0
-927 -932 0
-927 -933 0
-927 -934 0
-927 -935 0
-927 -936 0
-927 -937 0
-927 -938 0
-927 -939 0
-927 -940 0
-927 -941 0
-927 -942 0
-927 -943 0
-927 -944 0
-927 -945 0
-927 -946 0
-927 -947 0
-927 -948 0
-927 -949 0
-927 -950 0
-927 -951 0
-927 -952 0
-927 -953 0
-927 -954 0
-927 -955 0
-927 -956 0
-927 -957 0
-927 -958 0
-927 -959 0
-927 -960 0
-927 -961 0
-927 -962 0
-927 -963 0
-927 -964 0
-927 -965 0
-927 -966 0
-927 -967 0
-927 -968 0
-927 -969 0
-927 -970 0
-927 -971 0
-927 -972 0
-927 -973 0
-927 -974 0
-927 -975 0
-927 -976 0
-927 -977 0
-927 -978 0
-928 -929 0
-928 -930 0
-928 -931 0
-928 -932 0
-928 -933 0
-928 -934 0
-928 -935 0
-928 -936 0
-928 -937 0
-928 -938 0
-928 -939 0
-928 -940 0
-928 -941 0
-928 -942 0
-928 -943 0
-928 -944 0
-928 -945 0
-928 -946 0
-928 -947 0
-928 -948 0
-928 -949 0
-928 -950 0
-928 -951 0
-928 -952 0
-928 -953 0
-928 -954 0
-928 -955 0
-928 -956 0
-928 -957 0
-928 -958 0
-928 -959 0
-928 -960 0
-928 -961 0
-928 -962 0
-928 -963 0
-928 -964 0
-928 -965 0
-928 -966 0
-928 -967 0
-928 -968 0
-928 -969 0
-928 -970 0
-928 -971 0
-928 -972 0
-928 -973 0
-928 -974 0
-928 -975 0
-928 -976 0
-928 -977 0
-928 -978 0
-929 -930 0
-929 -931 0
-929 -932 0
-929 -933 0
-929 -934 0
-929 -935 0
-929 -936 0
-929 -937 0
-929 -938 0
-929 -939 0
-929 -940 0
-929 -941 0
-929 -942 0
-929 -943 0
-929 -944 0
-929 -945 0
-929 -946 0
-929 -947 0
-929 -948 0
-929 -949 0
-929 -950 0
-929 -951 0
-929 -952 0
-929 -953 0
-929 -954 0
-929 -955 0
-929 -956 0
-929 -957 0
-929 -958 0
-929 -959 0
-929 -960 0
-929 -961 0
-929 -962 0
-929 -963 0
-929 -964 0
-929 -965 0
-929 -966 0
-929 -967 0
-929 -968 0
-929 -969 0
-929 -970 0
-929 -971 0
-929 -972 0
-929 -973 0
-929 -974 0
-929 -975 0
-929 -976 0
-929 -977 0
-929 -978 0
-930 -931 0
-930 -932 0
-930 -933 0
-930 -934 0
-930 -935 0
-930 -936 0
-930 -937 0
-930 -938 0
-930 -939 0
-930 -940 0
-930 -941 0
-930 -942 0
-930 -943 0
-930 -944 0
-930 -945 0
-930 -946 0
-930 -947 0
-930 -948 0
-930 -949 0
-930 -950 0
-930 -951 0
-930 -952 0
-930 -953 0
-930 -954 0
-930 -955 0
-930 -956 0
-930 -957 0
-930 -958 0
-930 -959 0
-930 -960 0
-930 -961 0
-930 -962 0
-930 -963 0
-930 -964 0
-930 -965 0
-930 -966 0
-930 -967 0
-930 -968 0
-930 -969 0
-930 -970 0
-930 -971 0
-930 -972 0
-930 -973 0
-930 -974 0
-930 -975 0
-930 -976 0
-930 -977 0
-930 -978 0
-931 -932 0
-931 -933 0
-931 -934 0
-931 -935 0
-931 -936 0
-931 -937 0
-931 -938 0
-931 -939 0
-931 -940 0
-931 -941 0
-931 -942 0
-931 -943 0
-931 -944 0
-931 -945 0
-931 -946 0
-931 -947 0
-931 -948 0
-931 -949 0
-931 -950 0
-931 -951 0
-931 -952 0
-931 -953 0
-931 -954 0
-931 -955 0
-931 -956 0
-931 -957 0
-931 -958 0
-931 -959 0
-931 -960 0
-931 -961 0
-931 -962 0
-931 -963 0
-931 -964 0
-931 -965 0
-931 -966 0
-931 -967 0
-931 -968 0
-931 -969 0
-931 -970 0
-931 -971 0
-931 -972 0
-931 -973 0
-931 -974 0
-931 -975 0
-931 -976 0
-931 -977 0
-931 -978 0
-932 -933 0
-932 -934 0
-932 -935 0
-932 -936 0
-932 -937 0
-932 -938 0
-932 -939 0
-932 -940 0
-932 -941 0
-932 -942 0
-932 -943 0
-932 -944 0
-932 -945 0
-932 -946 0
-932 -947 0
-932 -948 0
-932 -949 0
-932 -950 0
-932 -951 0
-932 -952 0
-932 -953 0
-932 -954 0
-932 -955 0
-932 -956 0
-932 -957 0
-932 -958 0
-932 -959 0
-932 -960 0
-932 -961 0
-932 -962 0
-932 -963 0
-932 -964 0
-932 -965 0
-932 -966 0
-932 -967 0
-932 -968 0
-932 -969 0
-932 -970 0
-932 -971 0
-932 -972 0
-932 -973 0
-932 -974 0
-932 -975 0
-932 -976 0
-932 -977 0
-932 -978 0
-933 -934 0
-933 -935 0
-933 -936 0
-933 -937 0
-933 -938 0
-933 -939 0
-933 -940 0
-933 -941 0
-933 -942 0
-933 -943 0
-933 -944 0
-933 -945 0
-933 -946 0
-933 -947 0
-933 -948 0
-933 -949 0
-933 -950 0
-933 -951 0
-933 -952 0
-933 -953 0
-933 -954 0
-933 -955 0
-933 -956 0
-933 -957 0
-933 -958 0
-933 -959 0
-933 -960 0
-933 -961 0
-933 -962 0
-933 -963 0
-933 -964 0
-933 -965 0
-933 -966 0
-933 -967 0
-933 -968 0
-933 -969 0
-933 -970 0
-933 -971 0
-933 -972 0
-933 -973 0
-933 -974 0
-933 -975 0
-933 -976 0
-933 -977 0
-933 -978 0
-934 -935 0
-934 -936 0
-934 -937 0
-934 -938 0
-934 -939 0
-934 -940 0
-934 -941 0
-934 -942 0
-934 -943 0
-934 -944 0
-934 -945 0
-934 -946 0
-934 -947 0
-934 -948 0
-934 -949 0
-934 -950 0
-934 -951 0
-934 -952 0
-934 -953 0
-934 -954 0
-934 -955 0
-934 -956 0
-934 -957 0
-934 -958 0
-934 -959 0
-934 -960 0
-934 -961 0
-934 -962 0
-934 -963 0
-934 -964 0
-934 -965 0
-934 -966 0
-934 -967 0
-934 -968 0
-934 -969 0
-934 -970 0
-934 -971 0
-934 -972 0
-934 -973 0
-934 -974 0
-934 -975 0
-934 -976 0
-934 -977 0
-934 -978 0
-935 -936 0
-935 -937 0
-935 -938 0
-935 -939 0
-935 -940 0
-935 -941 0
-935 -942 0
-935 -943 0
-935 -944 0
-935 -945 0
-935 -946 0
-935 -947 0
-935 -948 0
-935 -949 0
-935 -950 0
-935 -951 0
-935 -952 0
-935 -953 0
-935 -954 0
-935 -955 0
-935 -956 0
-935 -957 0
-935 -958 0
-935 -959 0
-935 -960 0
-935 -961 0
-935 -962 0
-935 -963 0
-935 -964 0
-935 -965 0
-935 -966 0
-935 -967 0
-935 -968 0
-935 -969 0
-935 -970 0
-935 -971 0
-935 -972 0
-935 -973 0
-935 -974 0
-935 -975 0
-935 -976 0
-935 -977 0
-935 -978 0
-936 -937 0
-936 -938 0
-936 -939 0
-936 -940 0
-936 -941 0
-936 -942 0
-936 -943 0
-936 -944 0
-936 -945 0
-936 -946 0
-936 -947 0
-936 -948 0
-936 -949 0
-936 -950 0
-936 -951 0
-936 -952 0
-936 -953 0
-936 -954 0
-936 -955 0
-936 -956 0
-936 -957 0
-936 -958 0
-936 -959 0
-936 -960 0
-936 -961 0
-936 -962 0
-936 -963 0
-936 -964 0
-936 -965 0
-936 -966 0
-936 -967 0
-936 -968 0
-936 -969 0
-936 -970 0
-936 -971 0
-936 -972 0
-936 -973 0
-936 -974 0
-936 -975 0
-936 -976 0
-936 -977 0
-936 -978 0
-937 -938 0
-937 -939 0
-937 -940 0
-937 -941 0
-937 -942 0
-937 -943 0
-937 -944 0
-937 -945 0
-937 -946 0
-937 -947 0
-937 -948 0
-937 -949 0
-937 -950 0
-937 -951 0
-937 -952 0
-937 -953 0
-937 -954 0
-937 -955 0
-937 -956 0
-937 -957 0
-937 -958 0
-937 -959 0
-937 -960 0
-937 -961 0
-937 -962 0
-937 -963 0
-937 -964 0
-937 -965 0
-937 -966 0
-937 -967 0
-937 -968 0
-937 -969 0
-937 -970 0
-937 -971 0
-937 -972 0
-937 -973 0
-937 -974 0
-937 -975 0
-937 -976 0
-937 -977 0
-937 -978 0
-938 -939 0
-938 -940 0
-938 -941 0
-938 -942 0
-938 -943 0
-938 -944 0
-938 -945 0
-938 -946 0
-938 -947 0
-938 -948 0
-938 -949 0
-938 -950 0
-938 -951 0
-938 -952 0
-938 -953 0
-938 -954 0
-938 -955 0
-938 -956 0
-938 -957 0
-938 -958 0
-938 -959 0
-938 -960 0
-938 -961 0
-938 -962 0
-938 -963 0
-938 -964 0
-938 -965 0
-938 -966 0
-938 -967 0
-938 -968 0
-938 -969 0
-938 -970 0
-938 -971 0
-938 -972 0
-938 -973 0
-938 -974 0
-938 -975 0
-938 -976 0
-938 -977 0
-938 -978 0
-939 -940 0
-939 -941 0
-939 -942 0
-939 -943 0
-939 -944 0
-939 -945 0
-939 -946 0
-939 -947 0
-939 -948 0
-939 -949 0
-939 -950 0
-939 -951 0
-939 -952 0
-939 -953 0
-939 -954 0
-939 -955 0
-939 -956 0
-939 -957 0
-939 -958 0
-939 -959 0
-939 -960 0
-939 -961 0
-939 -962 0
-939 -963 0
-939 -964 0
-939 -965 0
-939 -966 0
-939 -967 0
-939 -968 0
-939 -969 0
-939 -970 0
-939 -971 0
-939 -972 0
-939 -973 0
-939 -974 0
-939 -975 0
-939 -976 0
-939 -977 0
-939 -978 0
-940 -941 0
-940 -942 0
-940 -943 0
-940 -944 0
-940 -945 0
-940 -946 0
-940 -947 0
-940 -948 0
-940 -949 0
-940 -950 0
-940 -951 0
-940 -952 0
-940 -953 0
-940 -954 0
-940 -955 0
-940 -956 0
-940 -957 0
-940 -958 0
-940 -959 0
-940 -960 0
-940 -961 0
-940 -962 0
-940 -963 0
-940 -964 0
-940 -965 0
-940 -966 0
-940 -967 0
-940 -968 0
-940 -969 0
-940 -970 0
-940 -971 0
-940 -972 0
-940 -973 0
-940 -974 0
-940 -975 0
-940 -976 0
-940 -977 0
-940 -978 0
-941 -942 0
-941 -943 0
-941 -944 0
-941 -945 0
-941 -946 0
-941 -947 0
-941 -948 0
-941 -949 0
-941 -950 0
-941 -951 0
-941 -952 0
-941 -953 0
-941 -954 0
-941 -955 0
-941 -956 0
-941 -957 0
-941 -958 0
-941 -959 0
-941 -960 0
-941 -961 0
-941 -962 0
-941 -963 0
-941 -964 0
-941 -965 0
-941 -966 0
-941 -967 0
-941 -968 0
-941 -969 0
-941 -970 0
-941 -971 0
-941 -972 0
-941 -973 0
-941 -974 0
-941 -975 0
-941 -976 0
-941 -977 0
-941 -978 0
-942 -943 0
-942 -944 0
-942 -945 0
-942 -946 0
-942 -947 0
-942 -948 0
-942 -949 0
-942 -950 0
-942 -951 0
-942 -952 0
-942 -953 0
-942 -954 0
-942 -955 0
-942 -956 0
-942 -957 0
-942 -958 0
-942 -959 0
-942 -960 0
-942 -961 0
-942 -962 0
-942 -963 0
-942 -964 0
-942 -965 0
-942 -966 0
-942 -967 0
-942 -968 0
-942 -969 0
-942 -970 0
-942 -971 0
-942 -972 0
-942 -973 0
-942 -974 0
-942 -975 0
-942 -976 0
-942 -977 0
-942 -978 0
-943 -944 0
-943 -945 0
-943 -946 0
-943 -947 0
-943 -948 0
-943 -949 0
-943 -950 0
-943 -951 0
-943 -952 0
-943 -953 0
-943 -954 0
-943 -955 0
-943 -956 0
-943 -957 0
-943 -958 0
-943 -959 0
-943 -960 0
-943 -961 0
-943 -962 0
-943 -963 0
-943 -964 0
-943 -965 0
-943 -966 0
-943 -967 0
-943 -968 0
-943 -969 0
-943 -970 0
-943 -971 0
-943 -972 0
-943 -973 0
-943 -974 0
-943 -975 0
-943 -976 0
-943 -977 0
-943 -978 0
-944 -945 0
-944 -946 0
-944 -947 0
-944 -948 0
-944 -949 0
-944 -950 0
-944 -951 0
-944 -952 0
-944 -953 0
-944 -954 0
-944 -955 0
-944 -956 0
-944 -957 0
-944 -958 0
-944 -959 0
-944 -960 0
-944 -961 0
-944 -962 0
-944 -963 0
-944 -964 0
-944 -965 0
-944 -966 0
-944 -967 0
-944 -968 0
-944 -969 0
-944 -970 0
-944 -971 0
-944 -972 0
-944 -973 0
-944 -974 0
-944 -975 0
-944 -976 0
-944 -977 0
-944 -978 0
-945 -946 0
-945 -947 0
-945 -948 0
-945 -949 0
-945 -950 0
-945 -951 0
-945 -952 0
-945 -953 0
-945 -954 0
-945 -955 0
-945 -956 0
-945 -957 0
-945 -958 0
-945 -959 0
-945 -960 0
-945 -961 0
-945 -962 0
-945 -963 0
-945 -964 0
-945 -965 0
-945 -966 0
-945 -967 0
-945 -968 0
-945 -969 0
-945 -970 0
-945 -971 0
-945 -972 0
-945 -973 0
-945 -974 0
-945 -975 0
-945 -976 0
-945 -977 0
-945 -978 0
-946 -947 0
-946 -948 0
-946 -949 0
-946 -950 0
-946 -951 0
-946 -952 0
-946 -953 0
-946 -954 0
-946 -955 0
-946 -956 0
-946 -957 0
-946 -958 0
-946 -959 0
-946 -960 0
-946 -961 0
-946 -962 0
-946 -963 0
-946 -964 0
-946 -965 0
-946 -966 0
-946 -967 0
-946 -968 0
-946 -969 0
-946 -970 0
-946 -971 0
-946 -972 0
-946 -973 0
-946 -974 0
-946 -975 0
-946 -976 0
-946 -977 0
-946 -978 0
-947 -948 0
-947 -949 0
-947 -950 0
-947 -951 0
-947 -952 0
-947 -953 0
-947 -954 0
-947 -955 0
-947 -956 0
-947 -957 0
-947 -958 0
-947 -959 0
-947 -960 0
-947 -961 0
-947 -962 0
-947 -963 0
-947 -964 0
-947 -965 0
-947 -966 0
-947 -967 0
-947 -968 0
-947 -969 0
-947 -970 0
-947 -971 0
-947 -972 0
-947 -973 0
-947 -974 0
-947 -975 0
-947 -976 0
-947 -977 0
-947 -978 0
-948 -949 0
-948 -950 0
-948 -951 0
-948 -952 0
-948 -953 0
-948 -954 0
-948 -955 0
-948 -956 0
-948 -957 0
-948 -958 0
-948 -959 0
-948 -960 0
-948 -961 0
-948 -962 0
-948 -963 0
-948 -964 0
-948 -965 0
-948 -966 0
-948 -967 0
-948 -968 0
-948 -969 0
-948 -970 0
-948 -971 0
-948 -972 0
-948 -973 0
-948 -974 0
-948 -975 0
-948 -976 0
-948 -977 0
-948 -978 0
-949 -950 0
-949 -951 0
-949 -952 0
-949 -953 0
-949 -954 0
-949 -955 0
-949 -956 0
-949 -957 0
-949 -958 0
-949 -959 0
-949 -960 0
-949 -961 0
-949 -962 0
-949 -963 0
-949 -964 0
-949 -965 0
-949 -966 0
-949 -967 0
-949 -968 0
-949 -969 0
-949 -970 0
-949 -971 0
-949 -972 0
-949 -973 0
-949 -974 0
-949 -975 0
-949 -976 0
-949 -977 0
-949 -978 0
-950 -951 0
-950 -952 0
-950 -953 0
-950 -954 0
-950 -955 0
-950 -956 0
-950 -957 0
-950 -958 0
-950 -959 0
-950 -960 0
-950 -961 0
-950 -962 0
-950 -963 0
-950 -964 0
-950 -965 0
-950 -966 0
-950 -967 0
-950 -968 0
-950 -969 0
-950 -970 0
-950 -971 0
-950 -972 0
-950 -973 0
-950 -974 0
-950 -975 0
-950 -976 0
-950 -977 0
-950 -978 0
-951 -952 0
-951 -953 0
-951 -954 0
-951 -955 0
-951 -956 0
-951 -957 0
-951 -958 0
-951 -959 0
-951 -960 0
-951 -961 0
-951 -962 0
-951 -963 0
-951 -964 0
-951 -965 0
-951 -966 0
-951 -967 0
-951 -968 0
-951 -969 0
-951 -970 0
-951 -971 0
-951 -972 0
-951 -973 0
-951 -974 0
-951 -975 0
-951 -976 0
-951 -977 0
-951 -978 0
-952 -953 0
-952 -954 0
-952 -955 0
-952 -956 0
-952 -957 0
-952 -958 0
-952 -959 0
-952 -960 0
-952 -961 0
-952 -962 0
-952 -963 0
-952 -964 0
-952 -965 0
-952 -966 0
-952 -967 0
-952 -968 0
-952 -969 0
-952 -970 0
-952 -971 0
-952 -972 0
-952 -973 0
-952 -974 0
-952 -975 0
-952 -976 0
-952 -977 0
-952 -978 0
-953 -954 0
-953 -955 0
-953 -956 0
-953 -957 0
-953 -958 0
-953 -959 0
-953 -960 0
-953 -961 0
-953 -962 0
-953 -963 0
-953 -964 0
-953 -965 0
-953 -966 0
-953 -967 0
-953 -968 0
-953 -969 0
-953 -970 0
-953 -971 0
-953 -972 0
-953 -973 0
-953 -974 0
-953 -975 0
-953 -976 0
-953 -977 0
-953 -978 0
-954 -955 0
-954 -956 0
-954 -957 0
-954 -958 0
-954 -959 0
-954 -960 0
-954 -961 0
-954 -962 0
-954 -963 0
-954 -964 0
-954 -965 0
-954 -966 0
-954 -967 0
-954 -968 0
-954 -969 0
-954 -970 0
-954 -971 0
-954 -972 0
-954 -973 0
-954 -974 0
-954 -975 0
-954 -976 0
-954 -977 0
-954 -978 0
-955 -956 0
-955 -957 0
-955 -958 0
-955 -959 0
-955 -960 0
-955 -961 0
-955 -962 0
-955 -963 0
-955 -964 0
-955 -965 0
-955 -966 0
-955 -967 0
-955 -968 0
-955 -969 0
-955 -970 0
-955 -971 0
-955 -972 0
-955 -973 0
-955 -974 0
-955 -975 0
-955 -976 0
-955 -977 0
-955 -978 0
-956 -957 0
-956 -958 0
-956 -959 0
-956 -960 0
-956 -961 0
-956 -962 0
-956 -963 0
-956 -964 0
-956 -965 0
-956 -966 0
-956 -967 0
-956 -968 0
-956 -969 0
-956 -970 0
-956 -971 0
-956 -972 0
-956 -973 0
-956 -974 0
-956 -975 0
-956 -976 0
-956 -977 0
-956 -978 0
-957 -958 0
-957 -959 0
-957 -960 0
-957 -961 0
-957 -962 0
-957 -963 0
-957 -964 0
-957 -965 0
-957 -966 0
-957 -967 0
-957 -968 0
-957 -969 0
-957 -970 0
-957 -971 0
-957 -972 0
-957 -973 0
-957 -974 0
-957 -975 0
-957 -976 0
-957 -977 0
-957 -978 0
-958 -959 0
-958 -960 0
-958 -961 0
-958 -962 0
-958 -963 0
-958 -964 0
-958 -965 0
-958 -966 0
-958 -967 0
-958 -968 0
-958 -969 0
-958 -970 0
-958 -971 0
-958 -972 0
-958 -973 0
-958 -974 0
-958 -975 0
-958 -976 0
-958 -977 0
-958 -978 0
-959 -960 0
-959 -961 0
-959 -962 0
-959 -963 0
-959 -964 0
-959 -965 0
-959 -966 0
-959 -967 0
-959 -968 0
-959 -969 0
-959 -970 0
-959 -971 0
-959 -972 0
-959 -973 0
-959 -974 0
-959 -975 0
-959 -976 0
-959 -977 0
-959 -978 0
-960 -961 0
-960 -962 0
-960 -963 0
-960 -964 0
-960 -965 0
-960 -966 0
-960 -967 0
-960 -968 0
-960 -969 0
-960 -970 0
-960 -971 0
-960 -972 0
-960 -973 0
-960 -974 0
-960 -975 0
-960 -976 0
-960 -977 0
-960 -978 0
-961 -962 0
-961 -963 0
-961 -964 0
-961 -965 0
-961 -966 0
-961 -967 0
-961 -968 0
-961 -969 0
-961 -970 0
-961 -971 0
-961 -972 0
-961 -973 0
-961 -974 0
-961 -975 0
-961 -976 0
-961 -977 0
-961 -978 0
-962 -963 0
-962 -964 0
-962 -965 0
-962 -966 0
-962 -967 0
-962 -968 0
-962 -969 0
-962 -970 0
-962 -971 0
-962 -972 0
-962 -973 0
-962 -974 0
-962 -975 0
-962 -976 0
-962 -977 0
-962 -978 0
-963 -964 0
-963 -965 0
-963 -966 0
-963 -967 0
-963 -968 0
-963 -969 0
-963 -970 0
-963 -971 0
-963 -972 0
-963 -973 0
-963 -974 0
-963 -975 0
-963 -976 0
-963 -977 0
-963 -978 0
-964 -965 0
-964 -966 0
-964 -967 0
-964 -968 0
-964 -969 0
-964 -970 0
-964 -971 0
-964 -972 0
-964 -973 0
-964 -974 0
-964 -975 0
-964 -976 0
-964 -977 0
-964 -978 0
-965 -966 0
-965 -967 0
-965 -968 0
-965 -969 0
-965 -970 0
-965 -971 0
-965 -972 0
-965 -973 0
-965 -974 0
-965 -975 0
-965 -976 0
-965 -977 0
-965 -978 0
-966 -967 0
-966 -968 0
-966 -969 0
-966 -970 0
-966 -971 0
-966 -972 0
-966 -973 0
-966 -974 0
-966 -975 0
-966 -976 0
-966 -977 0
-966 -978 0
-967 -968 0
-967 -969 0
-967 -970 0
-967 -971 0
-967 -972 0
-967 -973 0
-967 -974 0
-967 -975 0
-967 -976 0
-967 -977 0
-967 -978 0
-968 -969 0
-968 -970 0
-968 -971 0
-968 -972 0
-968 -973 0
-968 -974 0
-968 -975 0
-968 -976 0
-968 -977 0
-968 -978 0
-969 -970 0
-969 -971 0
-969 -972 0
-969 -973 0
-969 -974 0
-969 -975 0
-969 -976 0
-969 -977 0
-969 -978 0
-970 -971 0
-970 -972 0
-970 -973 0
-970 -974 0
-970 -975 0
-970 -976 0
-970 -977 0
-970 -978 0
-971 -972 0
-971 -973 0
-971 -974 0
-971 -975 0
-971 -976 0
-971 -977 0
-971 -978 0
-972 -973 0
-972 -974 0
-972 -975 0
-972 -976 0
-972 -977 0
-972 -978 0
-973 -974 0
-973 -975 0
-973 -976 0
-973 -977 0
-973 -978 0
-974 -975 0
-974 -976 0
-974 -977 0
-974 -978 0
-975 -976 0
-975 -977 0
-975 -978 0
-976 -977 0
-976 -978 0
-977 -978 0
-1 150 895 896 897 898 899 900 901 902 903 904 905 906 907 908 909 910 911 912 913 914 915 916 917 918 0
1 -150 895 896 897 898 899 900 901 902 903 904 905 906 907 908 909 910 911 912 913 914 915 916 917 918 0
-2 151 895 896 897 898 899 900 901 902 903 904 905 906 907 908 909 910 911 912 913 914 915 916 917 918 0
2 -151 895 896 897 898 899 900 901 902 903 904 905 906 907 908 909 910 911 912 913 914 915 916 917 918 0
-3 152 895 896 897 898 899 900 901 902 903 904 905 906 907 908 909 910 911 912 913 914 915 916 917 918 0
3 -152 895 896 897 898 899 900 901 902 903 904 905 906 907 908 909 910 911 912 913 914 915 916 917 918 0
-4 153 895 896 897 898 899 900 901 902 903 904 905 906 907 908 909 910 911 912 913 914 915 916 917 918 0
4 -153 895 896 897 898 899 900 901 902 903 904 905 906 907 908 909 910 911 912 913 914 915 916 917 918 0
-5 154 895 896 897 898 899 900 901 902 903 904 905 906 907 908 909 910 911 912 913 914 915 916 917 918 0
5 -154 895 896 897 898 899 900 901 902 903 904 905 906 907 908 909 910 911 912 913 914 915 916 917 918 0
-6 155 895 896 897 898 899 900 901 902 903 904 905 906 907 908 909 910 911 912 913 914 915 916 917 918 0
6 -155 895 896 897 898 899 900 901 902 903 904 905 906 907 908 909 910 911 912 913 914 915 916 917 918 0
-7 156 895 896 897 898 899 900 901 902 903 904 905 906 907 908 909 910 911 912 913 914 915 916 917 918 0
7 -156 895 896 897 898 899 900 901 902 903 904 905 906 907 908 909 910 911 912 913 914 915 916 917 918 0
-8 157 895 896 897 898 899 900 901 902 903 904 905 906 907 908 909 910 911 912 913 914 915 916 917 918 0
8 -157 895 896 897 898 899 900 901 902 903 904 905 906 907 908 909 910 911 912 913 914 915 916 917 918 0
-9 158 895 896 897 898 899 900 901 902 903 904 905 906 907 908 909 910 911 912 913 914 915 916 917 918 0
9 -158 895 896 897 898 899 900 901 902 903 904 905 906 907 908 909 910 911 912 913 914 915 916 917 918 0
-10 159 895 896 897 898 899 900 901 902 903 904 905 906 907 908 909 910 911 912 913 914 915 916 917 918 0
10 -159 895 896 897 898 899 900 901 902 903 904 905 906 907 908 909 910 911 912 913 914 915 916 917 918 0
-60 209 919 920 921 922 923 924 925 926 927 928 929 930 931 932 933 934 935 936 937 938 939 940 941 942 0
60 -209 919 920 921 922 923 924 925 926 927 928 929 930 931 932 933 934 935 936 937 938 939 940 941 942 0
-61 210 919 920 921 922 923 924 925 926 927 928 929 930 931 932 933 934 935 936 937 938 939 940 941 942 0
61 -210 919 920 921 922 923 924 925 926 927 928 929 930 931 932 933 934 935 936 937 938 939 940 941 942 0
-62 211 919 920 921 922 923 924 925 926 927 928 929 930 931 932 933 934 935 936 937 938 939 940 941 942 0
62 -211 919 920 921 922 923 924 925 926 927 928 929 930 931 932 933 934 935 936 937 938 939 940 941 942 0
-63 212 919 920 921 922 923 924 925 926 927 928 929 930 931 932 933 934 935 936 937 938 939 940 941 942 0
63 -212 919 920 921 922 923 924 925 926 927 928 929 930 931 932 933 934 935 936 937 938 939 940 941 942 0
-64 213 919 920 921 922 923 924 925 926 927 928 929 930 931 932 933 934 935 936 937 938 939 940 941 942 0
64 -213 919 920 921 922 923 924 925 926 927 928 929 930 931 932 933 934 935 936 937 938 939 940 941 942 0
-65 214 919 920 921 922 923 924 925 926 927 928 929 930 931 932 933 934 935 936 937 938 939 940 941 942 0
65 -214 919 920 921 922 923 924 925 926 927 928 929 930 931 932 933 934 935 936 937 938 939 940 941 942 0
-66 215 919 920 921 922 923 924 925 926 927 928 929 930 931 932 933 934 935 936 937 938 939 940 941 942 0
66 -215 919 920 921 922 923 924 925 926 927 928 929 930 931 932 933 934 935 936 937 938 939 940 941 942 0
-67 216 919 920 921 922 923 924 925 926 927 928 929 930 931 932 933 934 935 936 937 938 939 940 941 942 0
67 -216 919 920 921 922 923 924 925 926 927 928 929 930 931 932 933 934 935 936 937 938 939 940 941 942 0
-68 217 919 920 921 922 923 924 925 926 927 928 929 930 931 932 933 934 935 936 937 938 939 940 941 942 0
68 -217 919 920 921 922 923 924 925 926 927 928 929 930 931 932 933 934 935 936 937 938 939 940 941 942 0
-69 218 919 920 921 922 923 924 925 926 927 928 929 930 931 932 933 934 935 936 937 938 939 940 941 942 0
69 -218 919 920 921 922 923 924 925 926 927 928 929 930 931 932 933 934 935 936 937 938 939 940 941 942 0
-95 244 943 944 945 946 947 948 949 950 951 952 953 954 955 956 957 958 959 960 961 962 0
95 -244 943 944 945 946 947 948 949 950 951 952 953 954 955 956 957 958 959 960 961 962 0
-96 245 943 944 945 946 947 948 949 950 951 952 953 954 955 956 957 958 959 960 961 962 0
96 -245 943 944 945 946 947 948 949 950 951 952 953 954 955 956 957 958 959 960 961 962 0
-97 246 943 944 945 946 947 948 949 950 951 952 953 954 955 956 957 958 959 960 961 962 0
97 -246 943 944 945 946 947 948 949 950 951 952 953 954 955 956 957 958 959 960 961 962 0
-98 247 943 944 945 946 947 948 949 950 951 952 953 954 955 956 957 958 959 960 961 962 0
98 -247 943 944 945 946 947 948 949 950 951 952 953 954 955 956 957 958 959 960 961 962 0
-99 248 943 944 945 946 947 948 949 950 951 952 953 954 955 956 957 958 959 960 961 962 0
99 -248 943 944 945 946 947 948 949 950 951 952 953 954 955 956 957 958 959 960 961 962 0
-100 249 943 944 945 946 947 948 949 950 951 952 953 954 955 956 957 958 959 960 961 962 0
100 -249 943 944 945 946 947 948 949 950 951 952 953 954 955 956 957 958 959 960 961 962 0
-101 250 943 944 945 946 947 948 949 950 951 952 953 954 955 956 957 958 959 960 961 962 0
101 -250 943 944 945 946 947 948 949 950 951 952 953 954 955 956 957 958 959 960 961 962 0
-102 251 943 944 945 946 947 948 949 950 951 952 953 954 955 956 957 958 959 960 961 962 0
102 -251 943 944 945 946 947 948 949 950 951 952 953 954 955 956 957 958 959 960 961 962 0
-103 252 943 944 945 946 947 948 949 950 951 952 953 954 955 956 957 958 959 960 961 962 0
103 -252 943 944 945 946 947 948 949 950 951 952 953 954 955 956 957 958 959 960 961 962 0
-125 274 963 964 965 966 967 968 969 970 971 972 973 974 975 976 977 978 0
125 -274 963 964 965 966 967 968 969 970 971 972 973 974 975 976 977 978 0
-126 275 963 964 965 966 967 968 969 970 971 972 973 974 975 976 977 978 0
126 -275 963 964 965 966 967 968 969 970 971 972 973 974 975 976 977 978 0
-127 276 963 964 965 966 967 968 969 970 971 972 973 974 975 976 977 978 0
127 -276 963 964 965 966 967 968 969 970 971 972 973 974 975 976 977 978 0
-128 277 963 964 965 966 967 968 969 970 971 972 973 974 975 976 977 978 0
128 -277 963 964 965 966 967 968 969 970 971 972 973 974 975 976 977 978 0
-129 278 963 964 965 966 967 968 969 970 971 972 973 974 975 976 977 978 0
129 -278 963 964 965 966 967 968 969 970 971 972 973 974 975 976 977 978 0
-130 279 963 964 965 966 967 968 969 970 971 972 973 974 975 976 977 978 0
130 -279 963 964 965 966 967 968 969 970 971 972 973 974 975 976 977 978 0
-131 280 963 964 965 966 967 968 969 970 971 972 973 974 975 976 977 978 0
131 -280 963 964 965 966 967 968 969 970 971 972 973 974 975 976 977 978 0
-132 281 963 964 965 966 967 968 969 970 971 972 973 974 975 976 977 978 0
132 -281 963 964 965 966 967 968 969 970 971 972 973 974 975 976 977 978 0
-979 164 0
-979 299 0
-979 313 0
-979 305 0
-979 -150 -156 0
-980 164 0
-980 300 0
-980 313 0
-980 305 0
-980 -151 -156 0
-981 164 0
-981 301 0
-981 313 0
-981 305 0
-981 -152 -156 0
-982 164 0
-982 302 0
-982 313 0
-982 305 0
-982 -153 -156 0
-983 164 0
-983 303 0
-983 313 0
-983 305 0
-983 -154 -156 0
-984 164 0
-984 304 0
-984 313 0
-984 305 0
-984 -155 -156 0
-985 164 0
-985 299 0
-985 313 0
-985 209 0
-985 -218 0
-985 -369 0
-985 -215 306 0
-985 -215 -150 -157 0
-985 -216 307 0
-985 -216 -150 -158 0
-985 -217 308 0
-985 -217 -150 -159 0
-986 164 0
-986 300 0
-986 313 0
-986 210 0
-986 -218 0
-986 -369 0
-986 -215 306 0
-986 -215 -151 -157 0
-986 -216 307 0
-986 -216 -151 -158 0
-986 -217 308 0
-986 -217 -151 -159 0
-987 164 0
-987 301 0
-987 313 0
-987 211 0
-987 -218 0
-987 -369 0
-987 -215 306 0
-987 -215 -152 -157 0
-987 -216 307 0
-987 -216 -152 -158 0
-987 -217 308 0
-987 -217 -152 -159 0
-988 164 0
-988 302 0
-988 313 0
-988 212 0
-988 -218 0
-988 -369 0
-988 -215 306 0
-988 -215 -153 -157 0
-988 -216 307 0
-988 -216 -153 -158 0
-988 -217 308 0
-988 -217 -153 -159 0
-989 164 0
-989 303 0
-989 313 0
-989 213 0
-989 -218 0
-989 -369 0
-989 -215 306 0
-989 -215 -154 -157 0
-989 -216 307 0
-989 -216 -154 -158 0
-989 -217 308 0
-989 -217 -154 -159 0
-990 164 0
-990 304 0
-990 313 0
-990 214 0
-990 -218 0
-990 -369 0
-990 -215 306 0
-990 -215 -155 -157 0
-990 -216 307 0
-990 -216 -155 -158 0
-990 -217 308 0
-990 -217 -155 -159 0
-991 164 0
-991 299 0
-991 313 0
-991 244 0
-991 -252 0
-991 -403 0
-991 -249 306 0
-991 -249 -150 -157 0
-991 -250 307 0
-991 -250 -150 -158 0
-991 -251 308 0
-991 -251 -150 -159 0
-992 164 0
-992 300 0
-992 313 0
-992 244 245 0
-992 -252 0
-992 -403 0
-992 -249 306 0
-992 -249 -151 -157 0
-992 -250 307 0
-992 -250 -151 -158 0
-992 -251 308 0
-992 -251 -151 -159 0
-993 164 0
-993 301 0
-993 313 0
-993 245 246 0
-993 -252 0
-993 -403 0
-993 -249 306 0
-993 -249 -152 -157 0
-993 -250 307 0
-993 -250 -152 -158 0
-993 -251 308 0
-993 -251 -152 -159 0
-994 164 0
-994 302 0
-994 313 0
-994 246 247 0
-994 -252 0
-994 -403 0
-994 -249 306 0
-994 -249 -153 -157 0
-994 -250 307 0
-994 -250 -153 -158 0
-994 -251 308 0
-994 -251 -153 -159 0
-995 164 0
-995 303 0
-995 313 0
-995 247 248 0
-995 -252 0
-995 -403 0
-995 -249 306 0
-995 -249 -154 -157 0
-995 -250 307 0
-995 -250 -154 -158 0
-995 -251 308 0
-995 -251 -154 -159 0
-996 164 0
-996 304 0
-996 313 0
-996 248 0
-996 -252 0
-996 -403 0
-996 -249 306 0
-996 -249 -155 -157 0
-996 -250 307 0
-996 -250 -155 -158 0
-996 -251 308 0
-996 -251 -155 -159 0
-997 164 0
-997 299 0
-997 313 0
-997 274 0
-997 -281 0
-997 -432 0
-997 -278 306 0
-997 -278 -150 -157 0
-997 -279 307 0
-997 -279 -150 -158 0
-997 -280 308 0
-997 -280 -150 -159 0
-998 164 0
-998 300 0
-998 313 0
-998 274 275 0
-998 -281 0
-998 -432 0
-998 -278 306 0
-998 -278 -151 -157 0
-998 -279 307 0
-998 -279 -151 -158 0
-998 -280 308 0
-998 -280 -151 -159 0
-999 164 0
-999 301 0
-999 313 0
-999 274 275 276 0
-999 -281 0
-999 -432 0
-999 -278 306 0
-999 -278 -152 -157 0
-999 -279 307 0
-999 -279 -152 -158 0
-999 -280 308 0
-999 -280 -152 -159 0
-1000 164 0
-1000 302 0
-1000 313 0
-1000 275 276 277 0
-1000 -281 0
-1000 -432 0
-1000 -278 306 0
-1000 -278 -153 -157 0
-1000 -279 307 0
-1000 -279 -153 -158 0
-1000 -280 308 0
-1000 -280 -153 -159 0
-1001 164 0
-1001 303 0
-1001 313 0
-1001 276 277 0
-1001 -281 0
-1001 -432 0
-1001 -278 306 0
-1001 -278 -154 -157 0
-1001 -279 307 0
-1001 -279 -154 -158 0
-1001 -280 308 0
-1001 -280 -154 -159 0
-1002 164 0
-1002 304 0
-1002 313 0
-1002 277 0
-1002 -281 0
-1002 -432 0
-1002 -278 306 0
-1002 -278 -155 -157 0
-1002 -279 307 0
-1002 -279 -155 -158 0
-1002 -280 308 0
-1002 -280 -155 -159 0
-1003 220 0
-1003 358 0
-1003 369 0
-1003 364 0
-1003 -209 -215 0
-1004 220 0
-1004 359 0
-1004 369 0
-1004 364 0
-1004 -210 -215 0
-1005 220 0
-1005 360 0
-1005 369 0
-1005 364 0
-1005 -211 -215 0
-1006 220 0
-1006 361 0
-1006 369 0
-1006 364 0
-1006 -212 -215 0
-1007 220 0
-1007 362 0
-1007 369 0
-1007 364 0
-1007 -213 -215 0
-1008 220 0
-1008 363 0
-1008 369 0
-1008 364 0
-1008 -214 -215 0
-1009 220 0
-1009 358 0
-1009 369 0
-1009 150 0
-1009 -159 0
-1009 -313 0
-1009 -156 365 0
-1009 -156 -209 -216 0
-1009 -157 366 0
-1009 -157 -209 -217 0
-1009 -158 367 0
-1009 -158 -209 -218 0
-1010 220 0
-1010 359 0
-1010 369 0
-1010 151 0
-1010 -159 0
-1010 -313 0
-1010 -156 365 0
-1010 -156 -210 -216 0
-1010 -157 366 0
-1010 -157 -210 -217 0
-1010 -158 367 0
-1010 -158 -210 -218 0
-1011 220 0
-1011 360 0
-1011 369 0
-1011 152 0
-1011 -159 0
-1011 -313 0
-1011 -156 365 0
-1011 -156 -211 -216 0
-1011 -157 366 0
-1011 -157 -211 -217 0
-1011 -158 367 0
-1011 -158 -211 -218 0
-1012 220 0
-1012 361 0
-1012 369 0
-1012 153 0
-1012 -159 0
-1012 -313 0
-1012 -156 365 0
-1012 -156 -212 -216 0
-1012 -157 366 0
-1012 -157 -212 -217 0
-1012 -158 367 0
-1012 -158 -212 -218 0
-1013 220 0
-1013 362 0
-1013 369 0
-1013 154 0
-1013 -159 0
-1013 -313 0
-1013 -156 365 0
-1013 -156 -213 -216 0
-1013 -157 366 0
-1013 -157 -213 -217 0
-1013 -158 367 0
-1013 -158 -213 -218 0
-1014 220 0
-1014 363 0
-1014 369 0
-1014 155 0
-1014 -159 0
-1014 -313 0
-1014 -156 365 0
-1014 -156 -214 -216 0
-1014 -157 366 0
-1014 -157 -214 -217 0
-1014 -158 367 0
-1014 -158 -214 -218 0
-1015 220 0
-1015 358 0
-1015 369 0
-1015 244 0
-1015 -252 0
-1015 -403 0
-1015 -249 365 0
-1015 -249 -209 -216 0
-1015 -250 366 0
-1015 -250 -209 -217 0
-1015 -251 367 0
-1015 -251 -209 -218 0
-1016 220 0
-1016 359 0
-1016 369 0
-1016 244 245 0
-1016 -252 0
-1016 -403 0
-1016 -249 365 0
-1016 -249 -210 -216 0
-1016 -250 366 0
-1016 -250 -210 -217 0
-1016 -251 367 0
-1016 -251 -210 -218 0
-1017 220 0
-1017 360 0
-1017 369 0
-1017 245 246 0
-1017 -252 0
-1017 -403 0
-1017 -249 365 0
-1017 -249 -211 -216 0
-1017 -250 366 0
-1017 -250 -211 -217 0
-1017 -251 367 0
-1017 -251 -211 -218 0
-1018 220 0
-1018 361 0
-1018 369 0
-1018 246 247 0
-1018 -252 0
-1018 -403 0
-1018 -249 365 0
-1018 -249 -212 -216 0
-1018 -250 366 0
-1018 -250 -212 -217 0
-1018 -251 367 0
-1018 -251 -212 -218 0
-1019 220 0
-1019 362 0
-1019 369 0
-1019 247 248 0
-1019 -252 0
-1019 -403 0
-1019 -249 365 0
-1019 -249 -213 -216 0
-1019 -250 366 0
-1019 -250 -213 -217 0
-1019 -251 367 0
-1019 -251 -213 -218 0
-1020 220 0
-1020 363 0
-1020 369 0
-1020 248 0
-1020 -252 0
-1020 -403 0
-1020 -249 365 0
-1020 -249 -214 -216 0
-1020 -250 366 0
-1020 -250 -214 -217 0
-1020 -251 367 0
-1020 -251 -214 -218 0
-1021 220 0
-1021 358 0
-1021 369 0
-1021 274 0
-1021 -281 0
-1021 -432 0
-1021 -278 365 0
-1021 -278 -209 -216 0
-1021 -279 366 0
-1021 -279 -209 -217 0
-1021 -280 367 0
-1021 -280 -209 -218 0
-1022 220 0
-1022 359 0
-1022 369 0
-1022 274 275 0
-1022 -281 0
-1022 -432 0
-1022 -278 365 0
-1022 -278 -210 -216 0
-1022 -279 366 0
-1022 -279 -210 -217 0
-1022 -280 367 0
-1022 -280 -210 -218 0
-1023 220 0
-1023 360 0
-1023 369 0
-1023 274 275 276 0
-1023 -281 0
-1023 -432 0
-1023 -278 365 0
-1023 -278 -211 -216 0
-1023 -279 366 0
-1023 -279 -211 -217 0
-1023 -280 367 0
-1023 -280 -211 -218 0
-1024 220 0
-1024 361 0
-1024 369 0
-1024 275 276 277 0
-1024 -281 0
-1024 -432 0
-1024 -278 365 0
-1024 -278 -212 -216 0
-1024 -279 366 0
-1024 -279 -212 -217 0
-1024 -280 367 0
-1024 -280 -212 -218 0
-1025 220 0
-1025 362 0
-1025 369 0
-1025 276 277 0
-1025 -281 0
-1025 -432 0
-1025 -278 365 0
-1025 -278 -213 -216 0
-1025 -279 366 0
-1025 -279 -213 -217 0
-1025 -280 367 0
-1025 -280 -213 -218 0
-1026 220 0
-1026 363 0
-1026 369 0
-1026 277 0
-1026 -281 0
-1026 -432 0
-1026 -278 365 0
-1026 -278 -214 -216 0
-1026 -279 366 0
-1026 -279 -214 -217 0
-1026 -280 367 0
-1026 -280 -214 -218 0
-1027 254 0
-1027 393 0
-1027 403 0
-1027 398 0
-1027 -244 -249 0
-1028 254 0
-1028 394 0
-1028 403 0
-1028 398 0
-1028 -245 -249 0
-1029 254 0
-1029 395 0
-1029 403 0
-1029 398 0
-1029 -246 -249 0
-1030 254 0
-1030 396 0
-1030 403 0
-1030 398 0
-1030 -247 -249 0
-1031 254 0
-1031 397 0
-1031 403 0
-1031 398 0
-1031 -248 -249 0
-1032 254 0
-1032 393 0
-1032 403 0
-1032 150 151 0
-1032 -159 0
-1032 -313 0
-1032 -156 399 0
-1032 -156 -244 -250 0
-1032 -157 400 0
-1032 -157 -244 -251 0
-1032 -158 401 0
-1032 -158 -244 -252 0
-1033 254 0
-1033 394 0
-1033 403 0
-1033 151 152 0
-1033 -159 0
-1033 -313 0
-1033 -156 399 0
-1033 -156 -245 -250 0
-1033 -157 400 0
-1033 -157 -245 -251 0
-1033 -158 401 0
-1033 -158 -245 -252 0
-1034 254 0
-1034 395 0
-1034 403 0
-1034 152 153 0
-1034 -159 0
-1034 -313 0
-1034 -156 399 0
-1034 -156 -246 -250 0
-1034 -157 400 0
-1034 -157 -246 -251 0
-1034 -158 401 0
-1034 -158 -246 -252 0
-1035 254 0
-1035 396 0
-1035 403 0
-1035 153 154 0
-1035 -159 0
-1035 -313 0
-1035 -156 399 0
-1035 -156 -247 -250 0
-1035 -157 400 0
-1035 -157 -247 -251 0
-1035 -158 401 0
-1035 -158 -247 -252 0
-1036 254 0
-1036 397 0
-1036 403 0
-1036 154 155 0
-1036 -159 0
-1036 -313 0
-1036 -156 399 0
-1036 -156 -248 -250 0
-1036 -157 400 0
-1036 -157 -248 -251 0
-1036 -158 401 0
-1036 -158 -248 -252 0
-1037 254 0
-1037 393 0
-1037 403 0
-1037 209 210 0
-1037 -218 0
-1037 -369 0
-1037 -215 399 0
-1037 -215 -244 -250 0
-1037 -216 400 0
-1037 -216 -244 -251 0
-1037 -217 401 0
-1037 -217 -244 -252 0
-1038 254 0
-1038 394 0
-1038 403 0
-1038 210 211 0
-1038 -218 0
-1038 -369 0
-1038 -215 399 0
-1038 -215 -245 -250 0
-1038 -216 400 0
-1038 -216 -245 -251 0
-1038 -217 401 0
-1038 -217 -245 -252 0
-1039 254 0
-1039 395 0
-1039 403 0
-1039 211 212 0
-1039 -218 0
-1039 -369 0
-1039 -215 399 0
-1039 -215 -246 -250 0
-1039 -216 400 0
-1039 -216 -246 -251 0
-1039 -217 401 0
-1039 -217 -246 -252 0
-1040 254 0
-1040 396 0
-1040 403 0
-1040 212 213 0
-1040 -218 0
-1040 -369 0
-1040 -215 399 0
-1040 -215 -247 -250 0
-1040 -216 400 0
-1040 -216 -247 -251 0
-1040 -217 401 0
-1040 -217 -247 -252 0
-1041 254 0
-1041 397 0
-1041 403 0
-1041 213 214 0
-1041 -218 0
-1041 -369 0
-1041 -215 399 0
-1041 -215 -248 -250 0
-1041 -216 400 0
-1041 -216 -248 -251 0
-1041 -217 401 0
-1041 -217 -248 -252 0
-1042 254 0
-1042 393 0
-1042 403 0
-1042 274 275 0
-1042 -281 0
-1042 -432 0
-1042 -278 399 0
-1042 -278 -244 -250 0
-1042 -279 400 0
-1042 -279 -244 -251 0
-1042 -280 401 0
-1042 -280 -244 -252 0
-1043 254 0
-1043 394 0
-1043 403 0
-1043 274 275 276 0
-1043 -281 0
-1043 -432 0
-1043 -278 399 0
-1043 -278 -245 -250 0
-1043 -279 400 0
-1043 -279 -245 -251 0
-1043 -280 401 0
-1043 -280 -245 -252 0
-1044 254 0
-1044 395 0
-1044 403 0
-1044 274 275 276 277 0
-1044 -281 0
-1044 -432 0
-1044 -278 399 0
-1044 -278 -246 -250 0
-1044 -279 400 0
-1044 -279 -246 -251 0
-1044 -280 401 0
-1044 -280 -246 -252 0
-1045 254 0
-1045 396 0
-1045 403 0
-1045 275 276 277 0
-1045 -281 0
-1045 -432 0
-1045 -278 399 0
-1045 -278 -247 -250 0
-1045 -279 400 0
-1045 -279 -247 -251 0
-1045 -280 401 0
-1045 -280 -247 -252 0
-1046 254 0
-1046 397 0
-1046 403 0
-1046 276 277 0
-1046 -281 0
-1046 -432 0
-1046 -278 399 0
-1046 -278 -248 -250 0
-1046 -279 400 0
-1046 -279 -248 -251 0
-1046 -280 401 0
-1046 -280 -248 -252 0
-1047 283 0
-1047 423 0
-1047 432 0
-1047 427 0
-1047 -274 -278 0
-1048 283 0
-1048 424 0
-1048 432 0
-1048 427 0
-1048 -275 -278 0
-1049 283 0
-1049 425 0
-1049 432 0
-1049 427 0
-1049 -276 -278 0
-1050 283 0
-1050 426 0
-1050 432 0
-1050 427 0
-1050 -277 -278 0
-1051 283 0
-1051 423 0
-1051 432 0
-1051 150 151 152 0
-1051 -159 0
-1051 -313 0
-1051 -156 428 0
-1051 -156 -274 -279 0
-1051 -157 429 0
-1051 -157 -274 -280 0
-1051 -158 430 0
-1051 -158 -274 -281 0
-1052 283 0
-1052 424 0
-1052 432 0
-1052 151 152 153 0
-1052 -159 0
-1052 -313 0
-1052 -156 428 0
-1052 -156 -275 -279 0
-1052 -157 429 0
-1052 -157 -275 -280 0
-1052 -158 430 0
-1052 -158 -275 -281 0
-1053 283 0
-1053 425 0
-1053 432 0
-1053 152 153 154 0
-1053 -159 0
-1053 -313 0
-1053 -156 428 0
-1053 -156 -276 -279 0
-1053 -157 429 0
-1053 -157 -276 -280 0
-1053 -158 430 0
-1053 -158 -276 -281 0
-1054 283 0
-1054 426 0
-1054 432 0
-1054 153 154 155 0
-1054 -159 0
-1054 -313 0
-1054 -156 428 0
-1054 -156 -277 -279 0
-1054 -157 429 0
-1054 -157 -277 -280 0
-1054 -158 430 0
-1054 -158 -277 -281 0
-1055 283 0
-1055 423 0
-1055 432 0
-1055 209 210 211 0
-1055 -218 0
-1055 -369 0
-1055 -215 428 0
-1055 -215 -274 -279 0
-1055 -216 429 0
-1055 -216 -274 -280 0
-1055 -217 430 0
-1055 -217 -274 -281 0
-1056 283 0
-1056 424 0
-1056 432 0
-1056 210 211 212 0
-1056 -218 0
-1056 -369 0
-1056 -215 428 0
-1056 -215 -275 -279 0
-1056 -216 429 0
-1056 -216 -275 -280 0
-1056 -217 430 0
-1056 -217 -275 -281 0
-1057 283 0
-1057 425 0
-1057 432 0
-1057 211 212 213 0
-1057 -218 0
-1057 -369 0
-1057 -215 428 0
-1057 -215 -276 -279 0
-1057 -216 429 0
-1057 -216 -276 -280 0
-1057 -217 430 0
-1057 -217 -276 -281 0
-1058 283 0
-1058 426 0
-1058 432 0
-1058 212 213 214 0
-1058 -218 0
-1058 -369 0
-1058 -215 428 0
-1058 -215 -277 -279 0
-1058 -216 429 0
-1058 -216 -277 -280 0
-1058 -217 430 0
-1058 -217 -277 -281 0
-1059 283 0
-1059 423 0
-1059 432 0
-1059 244 245 246 0
-1059 -252 0
-1059 -403 0
-1059 -249 428 0
-1059 -249 -274 -279 0
-1059 -250 429 0
-1059 -250 -274 -280 0
-1059 -251 430 0
-1059 -251 -274 -281 0
-1060 283 0
-1060 424 0
-1060 432 0
-1060 244 245 246 247 0
-1060 -252 0
-1060 -403 0
-1060 -249 428 0
-1060 -249 -275 -279 0
-1060 -250 429 0
-1060 -250 -275 -280 0
-1060 -251 430 0
-1060 -251 -275 -281 0
-1061 283 0
-1061 425 0
-1061 432 0
-1061 245 246 247 248 0
-1061 -252 0
-1061 -403 0
-1061 -249 428 0
-1061 -249 -276 -279 0
-1061 -250 429 0
-1061 -250 -276 -280 0
-1061 -251 430 0
-1061 -251 -276 -281 0
-1062 283 0
-1062 426 0
-1062 432 0
-1062 246 247 248 0
-1062 -252 0
-1062 -403 0
-1062 -249 428 0
-1062 -249 -277 -279 0
-1062 -250 429 0
-1062 -250 -277 -280 0
-1062 -251 430 0
-1062 -251 -277 -281 0
979 980 981 982 983 984 985 986 987 988 989 990 991 992 993 994 995 996 997 998 999 1000 1001 1002 1003 1004 1005 1006 1007 1008 1009 1010 1011 1012 1013 1014 1015 1016 1017 1018 1019 1020 1021 1022 1023 1024 1025 1026 1027 1028 1029 1030 1031 1032 1033 1034 1035 1036 1037 1038 1039 1040 1041 1042 1043 1044 1045 1046 1047 1048 1049 1050 1051 1052 1053 1054 1055 1056 1057 1058 1059 1060 1061 1062 0
-979 -980 0
-979 -981 0
-979 -982 0
-979 -983 0
-979 -984 0
-979 -985 0
-979 -986 0
-979 -987 0
-979 -988 0
-979 -989 0
-979 -990 0
-979 -991 0
-979 -992 0
-979 -993 0
-979 -994 0
-979 -995 0
-979 -996 0
-979 -997 0
-979 -998 0
-979 -999 0
-979 -1000 0
-979 -1001 0
-979 -1002 0
-979 -1003 0
-979 -1004 0
-979 -1005 0
-979 -1006 0
-979 -1007 0
-979 -1008 0
-979 -1009 0
-979 -1010 0
-979 -1011 0
-979 -1012 0
-979 -1013 0
-979 -1014 0
-979 -1015 0
-979 -1016 0
-979 -1017 0
-979 -1018 0
-979 -1019 0
-979 -1020 0
-979 -1021 0
-979 -1022 0
-979 -1023 0
-979 -1024 0
-979 -1025 0
-979 -1026 0
-979 -1027 0
-979 -1028 0
-979 -1029 0
-979 -1030 0
-979 -1031 0
-979 -1032 0
-979 -1033 0
-979 -1034 0
-979 -1035 0
-979 -1036 0
-979 -1037 0
-979 -1038 0
-979 -1039 0
-979 -1040 0
-979 -1041 0
-979 -1042 0
-979 -1043 0
-979 -1044 0
-979 -1045 0
-979 -1046 0
-979 -1047 0
-979 -1048 0
-979 -1049 0
-979 -1050 0
-979 -1051 0
-979 -1052 0
-979 -1053 0
-979 -1054 0
-979 -1055 0
-979 -1056 0
-979 -1057 0
-979 -1058 0
-979 -1059 0
-979 -1060 0
-979 -1061 0
-979 -1062 0
-980 -981 0
-980 -982 0
-980 -983 0
-980 -984 0
-980 -985 0
-980 -986 0
-980 -987 0
-980 -988 0
-980 -989 0
-980 -990 0
-980 -991 0
-980 -992 0
-980 -993 0
-980 -994 0
-980 -995 0
-980 -996 0
-980 -997 0
-980 -998 0
-980 -999 0
-980 -1000 0
-980 -1001 0
-980 -1002 0
-980 -1003 0
-980 -1004 0
-980 -1005 0
-980 -1006 0
-980 -1007 0
-980 -1008 0
-980 -1009 0
-980 -1010 0
-980 -1011 0
-980 -1012 0
-980 -1013 0
-980 -1014 0
-980 -1015 0
-980 -1016 0
-980 -1017 0
-980 -1018 0
-980 -1019 0
-980 -1020 0
-980 -1021 0
-980 -1022 0
-980 -1023 0
-980 -1024 0
-980 -1025 0
-980 -1026 0
-980 -1027 0
-980 -1028 0
-980 -1029 0
-980 -1030 0
-980 -1031 0
-980 -1032 0
-980 -1033 0
-980 -1034 0
-980 -1035 0
-980 -1036 0
-980 -1037 0
-980 -1038 0
-980 -1039 0
-980 -1040 0
-980 -1041 0
-980 -1042 0
-980 -1043 0
-980 -1044 0
-980 -1045 0
-980 -1046 0
-980 -1047 0
-980 -1048 0
-980 -1049 0
-980 -1050 0
-980 -1051 0
-980 -1052 0
-980 -1053 0
-980 -1054 0
-980 -1055 0
-980 -1056 0
-980 -1057 0
-980 -1058 0
-980 -1059 0
-980 -1060 0
-980 -1061 0
-980 -1062 0
-981 -982 0
-981 -983 0
-981 -984 0
-981 -985 0
-981 -986 0
-981 -987 0
-981 -988 0
-981 -989 0
-981 -990 0
-981 -991 0
-981 -992 0
-981 -993 0
-981 -994 0
-981 -995 0
-981 -996 0
-981 -997 0
-981 -998 0
-981 -999 0
-981 -1000 0
-981 -1001 0
-981 -1002 0
-981 -1003 0
-981 -1004 0
-981 -1005 0
-981 -1006 0
-981 -1007 0
-981 -1008 0
-981 -1009 0
-981 -1010 0
-981 -1011 0
-981 -1012 0
-981 -1013 0
-981 -1014 0
-981 -1015 0
-981 -1016 0
-981 -1017 0
-981 -1018 0
-981 -1019 0
-981 -1020 0
-981 -1021 0
-981 -1022 0
-981 -1023 0
-981 -1024 0
-981 -1025 0
-981 -1026 0
-981 -1027 0
-981 -1028 0
-981 -1029 0
-981 -1030 0
-981 -1031 0
-981 -1032 0
-981 -1033 0
-981 -1034 0
-981 -1035 0
-981 -1036 0
-981 -1037 0
-981 -1038 0
-981 -1039 0
-981 -1040 0
-981 -1041 0
-981 -1042 0
-981 -1043 0
-981 -1044 0
-981 -1045 0
-981 -1046 0
-981 -1047 0
-981 -1048 0
-981 -1049 0
-981 -1050 0
-981 -1051 0
-981 -1052 0
-981 -1053 0
-981 -1054 0
-981 -1055 0
-981 -1056 0
-981 -1057 0
-981 -1058 0
-981 -1059 0
-981 -1060 0
-981 -1061 0
-981 -1062 0
-982 -983 0
-982 -984 0
-982 -985 0
-982 -986 0
-982 -987 0
-982 -988 0
-982 -989 0
-982 -990 0
-982 -991 0
-982 -992 0
-982 -993 0
-982 -994 0
-982 -995 0
-982 -996 0
-982 -997 0
-982 -998 0
-982 -999 0
-982 -1000 0
-982 -1001 0
-982 -1002 0
-982 -1003 0
-982 -1004 0
-982 -1005 0
-982 -1006 0
-982 -1007 0
-982 -1008 0
-982 -1009 0
-982 -1010 0
-982 -1011 0
-982 -1012 0
-982 -1013 0
-982 -1014 0
-982 -1015 0
-982 -1016 0
-982 -1017 0
-982 -1018 0
-982 -1019 0
-982 -1020 0
-982 -1021 0
-982 -1022 0
-982 -1023 0
-982 -1024 0
-982 -1025 0
-982 -1026 0
-982 -1027 0
-982 -1028 0
-982 -1029 0
-982 -1030 0
-982 -1031 0
-982 -1032 0
-982 -1033 0
-982 -1034 0
-982 -1035 0
-982 -1036 0
-982 -1037 0
-982 -1038 0
-982 -1039 0
-982 -1040 0
-982 -1041 0
-982 -1042 0
-982 -1043 0
-982 -1044 0
-982 -1045 0
-982 -1046 0
-982 -1047 0
-982 -1048 0
-982 -1049 0
-982 -1050 0
-982 -1051 0
-982 -1052 0
-982 -1053 0
-982 -1054 0
-982 -1055 0
-982 -1056 0
-982 -1057 0
-982 -1058 0
-982 -1059 0
-982 -1060 0
-982 -1061 0
-982 -1062 0
-983 -984 0
-983 -985 0
-983 -986 0
-983 -987 0
-983 -988 0
-983 -989 0
-983 -990 0
-983 -991 0
-983 -992 0
-983 -993 0
-983 -994 0
-983 -995 0
-983 -996 0
-983 -997 0
-983 -998 0
-983 -999 0
-983 -1000 0
-983 -1001 0
-983 -1002 0
-983 -1003 0
-983 -1004 0
-983 -1005 0
-983 -1006 0
-983 -1007 0
-983 -1008 0
-983 -1009 0
-983 -1010 0
-983 -1011 0
-983 -1012 0
-983 -1013 0
-983 -1014 0
-983 -1015 0
-983 -1016 0
-983 -1017 0
-983 -1018 0
-983 -1019 0
-983 -1020 0
-983 -1021 0
-983 -1022 0
-983 -1023 0
-983 -1024 0
-983 -1025 0
-983 -1026 0
-983 -1027 0
-983 -1028 0
-983 -1029 0
-983 -1030 0
-983 -1031 0
-983 -1032 0
-983 -1033 0
-983 -1034 0
-983 -1035 0
-983 -1036 0
-983 -1037 0
-983 -1038 0
-983 -1039 0
-983 -1040 0
-983 -1041 0
-983 -1042 0
-983 -1043 0
-983 -1044 0
-983 -1045 0
-983 -1046 0
-983 -1047 0
-983 -1048 0
-983 -1049 0
-983 -1050 0
-983 -1051 0
-983 -1052 0
-983 -1053 0
-983 -1054 0
-983 -1055 0
-983 -1056 0
-983 -1057 0
-983 -1058 0
-983 -1059 0
-983 -1060 0
-983 -1061 0
-983 -1062 0
-984 -985 0
-984 -986 0
-984 -987 0
-984 -988 0
-984 -989 0
-984 -990 0
-984 -991 0
-984 -992 0
-984 -993 0
-984 -994 0
-984 -995 0
-984 -996 0
-984 -997 0
-984 -998 0
-984 -999 0
-984 -1000 0
-984 -1001 0
-984 -1002 0
-984 -1003 0
-984 -1004 0
-984 -1005 0
-984 -1006 0
-984 -1007 0
-984 -1008 0
-984 -1009 0
-984 -1010 0
-984 -1011 0
-984 -1012 0
-984 -1013 0
-984 -1014 0
-984 -1015 0
-984 -1016 0
-984 -1017 0
-984 -1018 0
-984 -1019 0
-984 -1020 0
-984 -1021 0
-984 -1022 0
-984 -1023 0
-984 -1024 0
-984 -1025 0
-984 -1026 0
-984 -1027 0
-984 -1028 0
-984 -1029 0
-984 -1030 0
-984 -1031 0
-984 -1032 0
-984 -1033 0
-984 -1034 0
-984 -1035 0
-984 -1036 0
-984 -1037 0
-984 -1038 0
-984 -1039 0
-984 -1040 0
-984 -1041 0
-984 -1042 0
-984 -1043 0
-984 -1044 0
-984 -1045 0
-984 -1046 0
-984 -1047 0
-984 -1048 0
-984 -1049 0
-984 -1050 0
-984 -1051 0
-984 -1052 0
-984 -1053 0
-984 -1054 0
-984 -1055 0
-984 -1056 0
-984 -1057 0
-984 -1058 0
-984 -1059 0
-984 -1060 0
-984 -1061 0
-984 -1062 0
-985 -986 0
-985 -987 0
-985 -988 0
-985 -989 0
-985 -990 0
-985 -991 0
-985 -992 0
-985 -993 0
-985 -994 0
-985 -995 0
-985 -996 0
-985 -997 0
-985 -998 0
-985 -999 0
-985 -1000 0
-985 -1001 0
-985 -1002 0
-985 -1003 0
-985 -1004 0
-985 -1005 0
-985 -1006 0
-985 -1007 0
-985 -1008 0
-985 -1009 0
-985 -1010 0
-985 -1011 0
-985 -1012 0
-985 -1013 0
-985 -1014 0
-985 -1015 0
-985 -1016 0
-985 -1017 0
-985 -1018 0
-985 -1019 0
-985 -1020 0
-985 -1021 0
-985 -1022 0
-985 -1023 0
-985 -1024 0
-985 -1025 0
-985 -1026 0
-985 -1027 0
-985 -1028 0
-985 -1029 0
-985 -1030 0
-985 -1031 0
-985 -1032 0
-985 -1033 0
-985 -1034 0
-985 -1035 0
-985 -1036 0
-985 -1037 0
-985 -1038 0
-985 -1039 0
-985 -1040 0
-985 -1041 0
-985 -1042 0
-985 -1043 0
-985 -1044 0
-985 -1045 0
-985 -1046 0
-985 -1047 0
-985 -1048 0
-985 -1049 0
-985 -1050 0
-985 -1051 0
-985 -1052 0
-985 -1053 0
-985 -1054 0
-985 -1055 0
-985 -1056 0
-985 -1057 0
-985 -1058 0
-985 -1059 0
-985 -1060 0
-985 -1061 0
-985 -1062 0
-986 -987 0
-986 -988 0
-986 -989 0
-986 -990 0
-986 -991 0
-986 -992 0
-986 -993 0
-986 -994 0
-986 -995 0
-986 -996 0
-986 -997 0
-986 -998 0
-986 -999 0
-986 -1000 0
-986 -1001 0
-986 -1002 0
-986 -1003 0
-986 -1004 0
-986 -1005 0
-986 -1006 0
-986 -1007 0
-986 -1008 0
-986 -1009 0
-986 -1010 0
-986 -1011 0
-986 -1012 0
-986 -1013 0
-986 -1014 0
-986 -1015 0
-986 -1016 0
-986 -1017 0
-986 -1018 0
-986 -1019 0
-986 -1020 0
-986 -1021 0
-986 -1022 0
-986 -1023 0
-986 -1024 0
-986 -1025 0
-986 -1026 0
-986 -1027 0
-986 -1028 0
-986 -1029 0
-986 -1030 0
-986 -1031 0
-986 -1032 0
-986 -1033 0
-986 -1034 0
-986 -1035 0
-986 -1036 0
-986 -1037 0
-986 -1038 0
-986 -1039 0
-986 -1040 0
-986 -1041 0
-986 -1042 0
-986 -1043 0
-986 -1044 0
-986 -1045 0
-986 -1046 0
-986 -1047 0
-986 -1048 0
-986 -1049 0
-986 -1050 0
-986 -1051 0
-986 -1052 0
-986 -1053 0
-986 -1054 0
-986 -1055 0
-986 -1056 0
-986 -1057 0
-986 -1058 0
-986 -1059 0
-986 -1060 0
-986 -1061 0
-986 -1062 0
-987 -988 0
-987 -989 0
-987 -990 0
-987 -991 0
-987 -992 0
-987 -993 0
-987 -994 0
-987 -995 0
-987 -996 0
-987 -997 0
-987 -998 0
-987 -999 0
-987 -1000 0
-987 -1001 0
-987 -1002 0
-987 -1003 0
-987 -1004 0
-987 -1005 0
-987 -1006 0
-987 -1007 0
-987 -1008 0
-987 -1009 0
-987 -1010 0
-987 -1011 0
-987 -1012 0
-987 -1013 0
-987 -1014 0
-987 -1015 0
-987 -1016 0
-987 -1017 0
-987 -1018 0
-987 -1019 0
-987 -1020 0
-987 -1021 0
-987 -1022 0
-987 -1023 0
-987 -1024 0
-987 -1025 0
-987 -1026 0
-987 -1027 0
-987 -1028 0
-987 -1029 0
-987 -1030 0
-987 -1031 0
-987 -1032 0
-987 -1033 0
-987 -1034 0
-987 -1035 0
-987 -1036 0
-987 -1037 0
-987 -1038 0
-987 -1039 0
-987 -1040 0
-987 -1041 0
-987 -1042 0
-987 -1043 0
-987 -1044 0
-987 -1045 0
-987 -1046 0
-987 -1047 0
-987 -1048 0
-987 -1049 0
-987 -1050 0
-987 -1051 0
-987 -1052 0
-987 -1053 0
-987 -1054 0
-987 -1055 0
-987 -1056 0
-987 -1057 0
-987 -1058 0
-987 -1059 0
-987 -1060 0
-987 -1061 0
-987 -1062 0
-988 -989 0
-988 -990 0
-988 -991 0
-988 -992 0
-988 -993 0
-988 -994 0
-988 -995 0
-988 -996 0
-988 -997 0
-988 -998 0
-988 -999 0
-988 -1000 0
-988 -1001 0
-988 -1002 0
-988 -1003 0
-988 -1004 0
-988 -1005 0
-988 -1006 0
-988 -1007 0
-988 -1008 0
-988 -1009 0
-988 -1010 0
-988 -1011 0
-988 -1012 0
-988 -1013 0
-988 -1014 0
-988 -1015 0
-988 -1016 0
-988 -1017 0
-988 -1018 0
-988 -1019 0
-988 -1020 0
-988 -1021 0
-988 -1022 0
-988 -1023 0
-988 -1024 0
-988 -1025 0
-988 -1026 0
-988 -1027 0
-988 -1028 0
-988 -1029 0
-988 -1030 0
-988 -1031 0
-988 -1032 0
-988 -1033 0
-988 -1034 0
-988 -1035 0
-988 -1036 0
-988 -1037 0
-988 -1038 0
-988 -1039 0
-988 -1040 0
-988 -1041 0
-988 -1042 0
-988 -1043 0
-988 -1044 0
-988 -1045 0
-988 -1046 0
-988 -1047 0
-988 -1048 0
-988 -1049 0
-988 -1050 0
-988 -1051 0
-988 -1052 0
-988 -1053 0
-988 -1054 0
-988 -1055 0
-988 -1056 0
-988 -1057 0
-988 -1058 0
-988 -1059 0
-988 -1060 0
-988 -1061 0
-988 -1062 0
-989 -990 0
-989 -991 0
-989 -992 0
-989 -993 0
-989 -994 0
-989 -995 0
-989 -996 0
-989 -997 0
-989 -998 0
-989 -999 0
-989 -1000 0
-989 -1001 0
-989 -1002 0
-989 -1003 0
-989 -1004 0
-989 -1005 0
-989 -1006 0
-989 -1007 0
-989 -1008 0
-989 -1009 0
-989 -1010 0
-989 -1011 0
-989 -1012 0
-989 -1013 0
-989 -1014 0
-989 -1015 0
-989 -1016 0
-989 -1017 0
-989 -1018 0
-989 -1019 0
-989 -1020 0
-989 -1021 0
-989 -1022 0
-989 -1023 0
-989 -1024 0
-989 -1025 0
-989 -1026 0
-989 -1027 0
-989 -1028 0
-989 -1029 0
-989 -1030 0
-989 -1031 0
-989 -1032 0
-989 -1033 0
-989 -1034 0
-989 -1035 0
-989 -1036 0
-989 -1037 0
-989 -1038 0
-989 -1039 0
-989 -1040 0
-989 -1041 0
-989 -1042 0
-989 -1043 0
-989 -1044 0
-989 -1045 0
-989 -1046 0
-989 -1047 0
-989 -1048 0
-989 -1049 0
-989 -1050 0
-989 -1051 0
-989 -1052 0
-989 -1053 0
-989 -1054 0
-989 -1055 0
-989 -1056 0
-989 -1057 0
-989 -1058 0
-989 -1059 0
-989 -1060 0
-989 -1061 0
-989 -1062 0
-990 -991 0
-990 -992 0
-990 -993 0
-990 -994 0
-990 -995 0
-990 -996 0
-990 -997 0
-990 -998 0
-990 -999 0
-990 -1000 0
-990 -1001 0
-990 -1002 0
-990 -1003 0
-990 -1004 0
-990 -1005 0
-990 -1006 0
-990 -1007 0
-990 -1008 0
-990 -1009 0
-990 -1010 0
-990 -1011 0
-990 -1012 0
-990 -1013 0
-990 -1014 0
-990 -1015 0
-990 -1016 0
-990 -1017 0
-990 -1018 0
-990 -1019 0
-990 -1020 0
-990 -1021 0
-990 -1022 0
-990 -1023 0
-990 -1024 0
-990 -1025 0
-990 -1026 0
-990 -1027 0
-990 -1028 0
-990 -1029 0
-990 -1030 0
-990 -1031 0
-990 -1032 0
-990 -1033 0
-990 -1034 0
-990 -1035 0
-990 -1036 0
-990 -1037 0
-990 -1038 0
-990 -1039 0
-990 -1040 0
-990 -1041 0
-990 -1042 0
-990 -1043 0
-990 -1044 0
-990 -1045 0
-990 -1046 0
-990 -1047 0
-990 -1048 0
-990 -1049 0
-990 -1050 0
-990 -1051 0
-990 -1052 0
-990 -1053 0
-990 -1054 0
-990 -1055 0
-990 -1056 0
-990 -1057 0
-990 -1058 0
-990 -1059 0
-990 -1060 0
-990 -1061 0
-990 -1062 0
-991 -992 0
-991 -993 0
-991 -994 0
-991 -995 0
-991 -996 0
-991 -997 0
-991 -998 0
-991 -999 0
-991 -1000 0
-991 -1001 0
-991 -1002 0
-991 -1003 0
-991 -1004 0
-991 -1005 0
-991 -1006 0
-991 -1007 0
-991 -1008 0
-991 -1009 0
-991 -1010 0
-991 -1011 0
-991 -1012 0
-991 -1013 0
-991 -1014 0
-991 -1015 0
-991 -1016 0
-991 -1017 0
-991 -1018 0
-991 -1019 0
-991 -1020 0
-991 -1021 0
-991 -1022 0
-991 -1023 0
-991 -1024 0
-991 -1025 0
-991 -1026 0
-991 -1027 0
-991 -1028 0
-991 -1029 0
-991 -1030 0
-991 -1031 0
-991 -1032 0
-991 -1033 0
-991 -1034 0
-991 -1035 0
-991 -1036 0
-991 -1037 0
-991 -1038 0
-991 -1039 0
-991 -1040 0
-991 -1041 0
-991 -1042 0
-991 -1043 0
-991 -1044 0
-991 -1045 0
-991 -1046 0
-991 -1047 0
-991 -1048 0
-991 -1049 0
-991 -1050 0
-991 -1051 0
-991 -1052 0
-991 -1053 0
-991 -1054 0
-991 -1055 0
-991 -1056 0
-991 -1057 0
-991 -1058 0
-991 -1059 0
-991 -1060 0
-991 -1061 0
-991 -1062 0
-992 -993 0
-992 -994 0
-992 -995 0
-992 -996 0
-992 -997 0
-992 -998 0
-992 -999 0
-992 -1000 0
-992 -1001 0
-992 -1002 0
-992 -1003 0
-992 -1004 0
-992 -1005 0
-992 -1006 0
-992 -1007 0
-992 -1008 0
-992 -1009 0
-992 -1010 0
-992 -1011 0
-992 -1012 0
-992 -1013 0
-992 -1014 0
-992 -1015 0
-992 -1016 0
-992 -1017 0
-992 -1018 0
-992 -1019 0
-992 -1020 0
-992 -1021 0
-992 -1022 0
-992 -1023 0
-992 -1024 0
-992 -1025 0
-992 -1026 0
-992 -1027 0
-992 -1028 0
-992 -1029 0
-992 -1030 0
-992 -1031 0
-992 -1032 0
-992 -1033 0
-992 -1034 0
-992 -1035 0
-992 -1036 0
-992 -1037 0
-992 -1038 0
-992 -1039 0
-992 -1040 0
-992 -1041 0
-992 -1042 0
-992 -1043 0
-992 -1044 0
-992 -1045 0
-992 -1046 0
-992 -1047 0
-992 -1048 0
-992 -1049 0
-992 -1050 0
-992 -1051 0
-992 -1052 0
-992 -1053 0
-992 -1054 0
-992 -1055 0
-992 -1056 0
-992 -1057 0
-992 -1058 0
-992 -1059 0
-992 -1060 0
-992 -1061 0
-992 -1062 0
-993 -994 0
-993 -995 0
-993 -996 0
-993 -997 0
-993 -998 0
-993 -999 0
-993 -1000 0
-993 -1001 0
-993 -1002 0
-993 -1003 0
-993 -1004 0
-993 -1005 0
-993 -1006 0
-993 -1007 0
-993 -1008 0
-993 -1009 0
-993 -1010 0
-993 -1011 0
-993 -1012 0
-993 -1013 0
-993 -1014 0
-993 -1015 0
-993 -1016 0
-993 -1017 0
-993 -1018 0
-993 -1019 0
-993 -1020 0
-993 -1021 0
-993 -1022 0
-993 -1023 0
-993 -1024 0
-993 -1025 0
-993 -1026 0
-993 -1027 0
-993 -1028 0
-993 -1029 0
-993 -1030 0
-993 -1031 0
-993 -1032 0
-993 -1033 0
-993 -1034 0
-993 -1035 0
-993 -1036 0
-993 -1037 0
-993 -1038 0
-993 -1039 0
-993 -1040 0
-993 -1041 0
-993 -1042 0
-993 -1043 0
-993 -1044 0
-993 -1045 0
-993 -1046 0
-993 -1047 0
-993 -1048 0
-993 -1049 0
-993 -1050 0
-993 -1051 0
-993 -1052 0
-993 -1053 0
-993 -1054 0
-993 -1055 0
-993 -1056 0
-993 -1057 0
-993 -1058 0
-993 -1059 0
-993 -1060 0
-993 -1061 0
-993 -1062 0
-994 -995 0
-994 -996 0
-994 -997 0
-994 -998 0
-994 -999 0
-994 -1000 0
-994 -1001 0
-994 -1002 0
-994 -1003 0
-994 -1004 0
-994 -1005 0
-994 -1006 0
-994 -1007 0
-994 -1008 0
-994 -1009 0
-994 -1010 0
-994 -1011 0
-994 -1012 0
-994 -1013 0
-994 -1014 0
-994 -1015 0
-994 -1016 0
-994 -1017 0
-994 -1018 0
-994 -1019 0
-994 -1020 0
-994 -1021 0
-994 -1022 0
-994 -1023 0
-994 -1024 0
-994 -1025 0
-994 -1026 0
-994 -1027 0
-994 -1028 0
-994 -1029 0
-994 -1030 0
-994 -1031 0
-994 -1032 0
-994 -1033 0
-994 -1034 0
-994 -1035 0
-994 -1036 0
-994 -1037 0
-994 -1038 0
-994 -1039 0
-994 -1040 0
-994 -1041 0
-994 -1042 0
-994 -1043 0
-994 -1044 0
-994 -1045 0
-994 -1046 0
-994 -1047 0
-994 -1048 0
-994 -1049 0
-994 -1050 0
-994 -1051 0
-994 -1052 0
-994 -1053 0
-994 -1054 0
-994 -1055 0
-994 -1056 0
-994 -1057 0
-994 -1058 0
-994 -1059 0
-994 -1060 0
-994 -1061 0
-994 -1062 0
-995 -996 0
-995 -997 0
-995 -998 0
-995 -999 0
-995 -1000 0
-995 -1001 0
-995 -1002 0
-995 -1003 0
-995 -1004 0
-995 -1005 0
-995 -1006 0
-995 -1007 0
-995 -1008 0
-995 -1009 0
-995 -1010 0
-995 -1011 0
-995 -1012 0
-995 -1013 0
-995 -1014 0
-995 -1015 0
-995 -1016 0
-995 -1017 0
-995 -1018 0
-995 -1019 0
-995 -1020 0
-995 -1021 0
-995 -1022 0
-995 -1023 0
-995 -1024 0
-995 -1025 0
-995 -1026 0
-995 -1027 0
-995 -1028 0
-995 -1029 0
-995 -1030 0
-995 -1031 0
-995 -1032 0
-995 -1033 0
-995 -1034 0
-995 -1035 0
-995 -1036 0
-995 -1037 0
-995 -1038 0
-995 -1039 0
-995 -1040 0
-995 -1041 0
-995 -1042 0
-995 -1043 0
-995 -1044 0
-995 -1045 0
-995 -1046 0
-995 -1047 0
-995 -1048 0
-995 -1049 0
-995 -1050 0
-995 -1051 0
-995 -1052 0
-995 -1053 0
-995 -1054 0
-995 -1055 0
-995 -1056 0
-995 -1057 0
-995 -1058 0
-995 -1059 0
-995 -1060 0
-995 -1061 0
-995 -1062 0
-996 -997 0
-996 -998 0
-996 -999 0
-996 -1000 0
-996 -1001 0
-996 -1002 0
-996 -1003 0
-996 -1004 0
-996 -1005 0
-996 -1006 0
-996 -1007 0
-996 -1008 0
-996 -1009 0
-996 -1010 0
-996 -1011 0
-996 -1012 0
-996 -1013 0
-996 -1014 0
-996 -1015 0
-996 -1016 0
-996 -1017 0
-996 -1018 0
-996 -1019 0
-996 -1020 0
-996 -1021 0
-996 -1022 0
-996 -1023 0
-996 -1024 0
-996 -1025 0
-996 -1026 0
-996 -1027 0
-996 -1028 0
-996 -1029 0
-996 -1030 0
-996 -1031 0
-996 -1032 0
-996 -1033 0
-996 -1034 0
-996 -1035 0
-996 -1036 0
-996 -1037 0
-996 -1038 0
-996 -1039 0
-996 -1040 0
-996 -1041 0
-996 -1042 0
-996 -1043 0
-996 -1044 0
-996 -1045 0
-996 -1046 0
-996 -1047 0
-996 -1048 0
-996 -1049 0
-996 -1050 0
-996 -1051 0
-996 -1052 0
-996 -1053 0
-996 -1054 0
-996 -1055 0
-996 -1056 0
-996 -1057 0
-996 -1058 0
-996 -1059 0
-996 -1060 0
-996 -1061 0
-996 -1062 0
-997 -998 0
-997 -999 0
-997 -1000 0
-997 -1001 0
-997 -1002 0
-997 -1003 0
-997 -1004 0
-997 -1005 0
-997 -1006 0
-997 -1007 0
-997 -1008 0
-997 -1009 0
-997 -1010 0
-997 -1011 0
-997 -1012 0
-997 -1013 0
-997 -1014 0
-997 -1015 0
-997 -1016 0
-997 -1017 0
-997 -1018 0
-997 -1019 0
-997 -1020 0
-997 -1021 0
-997 -1022 0
-997 -1023 0
-997 -1024 0
-997 -1025 0
-997 -1026 0
-997 -1027 0
-997 -1028 0
-997 -1029 0
-997 -1030 0
-997 -1031 0
-997 -1032 0
-997 -1033 0
-997 -1034 0
-997 -1035 0
-997 -1036 0
-997 -1037 0
-997 -1038 0
-997 -1039 0
-997 -1040 0
-997 -1041 0
-997 -1042 0
-997 -1043 0
-997 -1044 0
-997 -1045 0
-997 -1046 0
-997 -1047 0
-997 -1048 0
-997 -1049 0
-997 -1050 0
-997 -1051 0
-997 -1052 0
-997 -1053 0
-997 -1054 0
-997 -1055 0
-997 -1056 0
-997 -1057 0
-997 -1058 0
-997 -1059 0
-997 -1060 0
-997 -1061 0
-997 -1062 0
-998 -999 0
-998 -1000 0
-998 -1001 0
-998 -1002 0
-998 -1003 0
-998 -1004 0
-998 -1005 0
-998 -1006 0
-998 -1007 0
-998 -1008 0
-998 -1009 0
-998 -1010 0
-998 -1011 0
-998 -1012 0
-998 -1013 0
-998 -1014 0
-998 -1015 0
-998 -1016 0
-998 -1017 0
-998 -1018 0
-998 -1019 0
-998 -1020 0
-998 -1021 0
-998 -1022 0
-998 -1023 0
-998 -1024 0
-998 -1025 0
-998 -1026 0
-998 -1027 0
-998 -1028 0
-998 -1029 0
-998 -1030 0
-998 -1031 0
-998 -1032 0
-998 -1033 0
-998 -1034 0
-998 -1035 0
-998 -1036 0
-998 -1037 0
-998 -1038 0
-998 -1039 0
-998 -1040 0
-998 -1041 0
-998 -1042 0
-998 -1043 0
-998 -1044 0
-998 -1045 0
-998 -1046 0
-998 -1047 0
-998 -1048 0
-998 -1049 0
-998 -1050 0
-998 -1051 0
-998 -1052 0
-998 -1053 0
-998 -1054 0
-998 -1055 0
-998 -1056 0
-998 -1057 0
-998 -1058 0
-998 -1059 0
-998 -1060 0
-998 -1061 0
-998 -1062 0
-999 -1000 0
-999 -1001 0
-999 -1002 0
-999 -1003 0
-999 -1004 0
-999 -1005 0
-999 -1006 0
-999 -1007 0
-999 -1008 0
-999 -1009 0
-999 -1010 0
-999 -1011 0
-999 -1012 0
-999 -1013 0
-999 -1014 0
-999 -1015 0
-999 -1016 0
-999 -1017 0
-999 -1018 0
-999 -1019 0
-999 -1020 0
-999 -1021 0
-999 -1022 0
-999 -1023 0
-999 -1024 0
-999 -1025 0
-999 -1026 0
-999 -1027 0
-999 -1028 0
-999 -1029 0
-999 -1030 0
-999 -1031 0
-999 -1032 0
-999 -1033 0
-999 -1034 0
-999 -1035 0
-999 -1036 0
-999 -1037 0
-999 -1038 0
-999 -1039 0
-999 -1040 0
-999 -1041 0
-999 -1042 0
-999 -1043 0
-999 -1044 0
-999 -1045 0
-999 -1046 0
-999 -1047 0
-999 -1048 0
-999 -1049 0
-999 -1050 0
-999 -1051 0
-999 -1052 0
-999 -1053 0
-999 -1054 0
-999 -1055 0
-999 -1056 0
-999 -1057 0
-999 -1058 0
-999 -1059 0
-999 -1060 0
-999 -1061 0
-999 -1062 0
-1000 -1001 0
-1000 -1002 0
-1000 -1003 0
-1000 -1004 0
-1000 -1005 0
-1000 -1006 0
-1000 -1007 0
-1000 -1008 0
-1000 -1009 0
-1000 -1010 0
-1000 -1011 0
-1000 -1012 0
-1000 -1013 0
-1000 -1014 0
-1000 -1015 0
-1000 -1016 0
-1000 -1017 0
-1000 -1018 0
-1000 -1019 0
-1000 -1020 0
-1000 -1021 0
-1000 -1022 0
-1000 -1023 0
-1000 -1024 0
-1000 -1025 0
-1000 -1026 0
-1000 -1027 0
-1000 -1028 0
-1000 -1029 0
-1000 -1030 0
-1000 -1031 0
-1000 -1032 0
-1000 -1033 0
-1000 -1034 0
-1000 -1035 0
-1000 -1036 0
-1000 -1037 0
-1000 -1038 0
-1000 -1039 0
-1000 -1040 0
-1000 -1041 0
-1000 -1042 0
-1000 -1043 0
-1000 -1044 0
-1000 -1045 0
-1000 -1046 0
-1000 -1047 0
-1000 -1048 0
-1000 -1049 0
-1000 -1050 0
-1000 -1051 0
-1000 -1052 0
-1000 -1053 0
-1000 -1054 0
-1000 -1055 0
-1000 -1056 0
-1000 -1057 0
-1000 -1058 0
-1000 -1059 0
-1000 -1060 0
-1000 -1061 0
-1000 -1062 0
-1001 -1002 0
-1001 -1003 0
-1001 -1004 0
-1001 -1005 0
-1001 -1006 0
-1001 -1007 0
-1001 -1008 0
-1001 -1009 0
-1001 -1010 0
-1001 -1011 0
-1001 -1012 0
-1001 -1013 0
-1001 -1014 0
-1001 -1015 0
-1001 -1016 0
-1001 -1017 0
-1001 -1018 0
-1001 -1019 0
-1001 -1020 0
-1001 -1021 0
-1001 -1022 0
-1001 -1023 0
-1001 -1024 0
-1001 -1025 0
-1001 -1026 0
-1001 -1027 0
-1001 -1028 0
-1001 -1029 0
-1001 -1030 0
-1001 -1031 0
-1001 -1032 0
-1001 -1033 0
-1001 -1034 0
-1001 -1035 0
-1001 -1036 0
-1001 -1037 0
-1001 -1038 0
-1001 -1039 0
-1001 -1040 0
-1001 -1041 0
-1001 -1042 0
-1001 -1043 0
-1001 -1044 0
-1001 -1045 0
-1001 -1046 0
-1001 -1047 0
-1001 -1048 0
-1001 -1049 0
-1001 -1050 0
-1001 -1051 0
-1001 -1052 0
-1001 -1053 0
-1001 -1054 0
-1001 -1055 0
-1001 -1056 0
-1001 -1057 0
-1001 -1058 0
-1001 -1059 0
-1001 -1060 0
-1001 -1061 0
-1001 -1062 0
-1002 -1003 0
-1002 -1004 0
-1002 -1005 0
-1002 -1006 0
-1002 -1007 0
-1002 -1008 0
-1002 -1009 0
-1002 -1010 0
-1002 -1011 0
-1002 -1012 0
-1002 -1013 0
-1002 -1014 0
-1002 -1015 0
-1002 -1016 0
-1002 -1017 0
-1002 -1018 0
-1002 -1019 0
-1002 -1020 0
-1002 -1021 0
-1002 -1022 0
-1002 -1023 0
-1002 -1024 0
-1002 -1025 0
-1002 -1026 0
-1002 -1027 0
-1002 -1028 0
-1002 -1029 0
-1002 -1030 0
-1002 -1031 0
-1002 -1032 0
-1002 -1033 0
-1002 -1034 0
-1002 -1035 0
-1002 -1036 0
-1002 -1037 0
-1002 -1038 0
-1002 -1039 0
-1002 -1040 0
-1002 -1041 0
-1002 -1042 0
-1002 -1043 0
-1002 -1044 0
-1002 -1045 0
-1002 -1046 0
-1002 -1047 0
-1002 -1048 0
-1002 -1049 0
-1002 -1050 0
-1002 -1051 0
-1002 -1052 0
-1002 -1053 0
-1002 -1054 0
-1002 -1055 0
-1002 -1056 0
-1002 -1057 0
-1002 -1058 0
-1002 -1059 0
-1002 -1060 0
-1002 -1061 0
-1002 -1062 0
-1003 -1004 0
-1003 -1005 0
-1003 -1006 0
-1003 -1007 0
-1003 -1008 0
-1003 -1009 0
-1003 -1010 0
-1003 -1011 0
-1003 -1012 0
-1003 -1013 0
-1003 -1014 0
-1003 -1015 0
-1003 -1016 0
-1003 -1017 0
-1003 -1018 0
-1003 -1019 0
-1003 -1020 0
-1003 -1021 0
-1003 -1022 0
-1003 -1023 0
-1003 -1024 0
-1003 -1025 0
-1003 -1026 0
-1003 -1027 0
-1003 -1028 0
-1003 -1029 0
-1003 -1030 0
-1003 -1031 0
-1003 -1032 0
-1003 -1033 0
-1003 -1034 0
-1003 -1035 0
-1003 -1036 0
-1003 -1037 0
-1003 -1038 0
-1003 -1039 0
-1003 -1040 0
-1003 -1041 0
-1003 -1042 0
-1003 -1043 0
-1003 -1044 0
-1003 -1045 0
-1003 -1046 0
-1003 -1047 0
-1003 -1048 0
-1003 -1049 0
-1003 -1050 0
-1003 -1051 0
-1003 -1052 0
-1003 -1053 0
-1003 -1054 0
-1003 -1055 0
-1003 -1056 0
-1003 -1057 0
-1003 -1058 0
-1003 -1059 0
-1003 -1060 0
-1003 -1061 0
-1003 -1062 0
-1004 -1005 0
-1004 -1006 0
-1004 -1007 0
-1004 -1008 0
-1004 -1009 0
-1004 -1010 0
-1004 -1011 0
-1004 -1012 0
-1004 -1013 0
-1004 -1014 0
-1004 -1015 0
-1004 -1016 0
-1004 -1017 0
-1004 -1018 0
-1004 -1019 0
-1004 -1020 0
-1004 -1021 0
-1004 -1022 0
-1004 -1023 0
-1004 -1024 0
-1004 -1025 0
-1004 -1026 0
-1004 -1027 0
-1004 -1028 0
-1004 -1029 0
-1004 -1030 0
-1004 -1031 0
-1004 -1032 0
-1004 -1033 0
-1004 -1034 0
-1004 -1035 0
-1004 -1036 0
-1004 -1037 0
-1004 -1038 0
-1004 -1039 0
-1004 -1040 0
-1004 -1041 0
-1004 -1042 0
-1004 -1043 0
-1004 -1044 0
-1004 -1045 0
-1004 -1046 0
-1004 -1047 0
-1004 -1048 0
-1004 -1049 0
-1004 -1050 0
-1004 -1051 0
-1004 -1052 0
-1004 -1053 0
-1004 -1054 0
-1004 -1055 0
-1004 -1056 0
-1004 -1057 0
-1004 -1058 0
-1004 -1059 0
-1004 -1060 0
-1004 -1061 0
-1004 -1062 0
-1005 -1006 0
-1005 -1007 0
-1005 -1008 0
-1005 -1009 0
-1005 -1010 0
-1005 -1011 0
-1005 -1012 0
-1005 -1013 0
-1005 -1014 0
-1005 -1015 0
-1005 -1016 0
-1005 -1017 0
-1005 -1018 0
-1005 -1019 0
-1005 -1020 0
-1005 -1021 0
-1005 -1022 0
-1005 -1023 0
-1005 -1024 0
-1005 -1025 0
-1005 -1026 0
-1005 -1027 0
-1005 -1028 0
-1005 -1029 0
-1005 -1030 0
-1005 -1031 0
-1005 -1032 0
-1005 -1033 0
-1005 -1034 0
-1005 -1035 0
-1005 -1036 0
-1005 -1037 0
-1005 -1038 0
-1005 -1039 0
-1005 -1040 0
-1005 -1041 0
-1005 -1042 0
-1005 -1043 0
-1005 -1044 0
-1005 -1045 0
-1005 -1046 0
-1005 -1047 0
-1005 -1048 0
-1005 -1049 0
-1005 -1050 0
-1005 -1051 0
-1005 -1052 0
-1005 -1053 0
-1005 -1054 0
-1005 -1055 0
-1005 -1056 0
-1005 -1057 0
-1005 -1058 0
-1005 -1059 0
-1005 -1060 0
-1005 -1061 0
-1005 -1062 0
-1006 -1007 0
-1006 -1008 0
-1006 -1009 0
-1006 -1010 0
-1006 -1011 0
-1006 -1012 0
-1006 -1013 0
-1006 -1014 0
-1006 -1015 0
-1006 -1016 0
-1006 -1017 0
-1006 -1018 0
-1006 -1019 0
-1006 -1020 0
-1006 -1021 0
-1006 -1022 0
-1006 -1023 0
-1006 -1024 0
-1006 -1025 0
-1006 -1026 0
-1006 -1027 0
-1006 -1028 0
-1006 -1029 0
-1006 -1030 0
-1006 -1031 0
-1006 -1032 0
-1006 -1033 0
-1006 -1034 0
-1006 -1035 0
-1006 -1036 0
-1006 -1037 0
-1006 -1038 0
-1006 -1039 0
-1006 -1040 0
-1006 -1041 0
-1006 -1042 0
-1006 -1043 0
-1006 -1044 0
-1006 -1045 0
-1006 -1046 0
-1006 -1047 0
-1006 -1048 0
-1006 -1049 0
-1006 -1050 0
-1006 -1051 0
-1006 -1052 0
-1006 -1053 0
-1006 -1054 0
-1006 -1055 0
-1006 -1056 0
-1006 -1057 0
-1006 -1058 0
-1006 -1059 0
-1006 -1060 0
-1006 -1061 0
-1006 -1062 0
-1007 -1008 0
-1007 -1009 0
-1007 -1010 0
-1007 -1011 0
-1007 -1012 0
-1007 -1013 0
-1007 -1014 0
-1007 -1015 0
-1007 -1016 0
-1007 -1017 0
-1007 -1018 0
-1007 -1019 0
-1007 -1020 0
-1007 -1021 0
-1007 -1022 0
-1007 -1023 0
-1007 -1024 0
-1007 -1025 0
-1007 -1026 0
-1007 -1027 0
-1007 -1028 0
-1007 -1029 0
-1007 -1030 0
-1007 -1031 0
-1007 -1032 0
-1007 -1033 0
-1007 -1034 0
-1007 -1035 0
-1007 -1036 0
-1007 -1037 0
-1007 -1038 0
-1007 -1039 0
-1007 -1040 0
-1007 -1041 0
-1007 -1042 0
-1007 -1043 0
-1007 -1044 0
-1007 -1045 0
-1007 -1046 0
-1007 -1047 0
-1007 -1048 0
-1007 -1049 0
-1007 -1050 0
-1007 -1051 0
-1007 -1052 0
-1007 -1053 0
-1007 -1054 0
-1007 -1055 0
-1007 -1056 0
-1007 -1057 0
-1007 -1058 0
-1007 -1059 0
-1007 -1060 0
-1007 -1061 0
-1007 -1062 0
-1008 -1009 0
-1008 -1010 0
-1008 -1011 0
-1008 -1012 0
-1008 -1013 0
-1008 -1014 0
-1008 -1015 0
-1008 -1016 0
-1008 -1017 0
-1008 -1018 0
-1008 -1019 0
-1008 -1020 0
-1008 -1021 0
-1008 -1022 0
-1008 -1023 0
-1008 -1024 0
-1008 -1025 0
-1008 -1026 0
-1008 -1027 0
-1008 -1028 0
-1008 -1029 0
-1008 -1030 0
-1008 -1031 0
-1008 -1032 0
-1008 -1033 0
-1008 -1034 0
-1008 -1035 0
-1008 -1036 0
-1008 -1037 0
-1008 -1038 0
-1008 -1039 0
-1008 -1040 0
-1008 -1041 0
-1008 -1042 0
-1008 -1043 0
-1008 -1044 0
-1008 -1045 0
-1008 -1046 0
-1008 -1047 0
-1008 -1048 0
-1008 -1049 0
-1008 -1050 0
-1008 -1051 0
-1008 -1052 0
-1008 -1053 0
-1008 -1054 0
-1008 -1055 0
-1008 -1056 0
-1008 -1057 0
-1008 -1058 0
-1008 -1059 0
-1008 -1060 0
-1008 -1061 0
-1008 -1062 0
-1009 -1010 0
-1009 -1011 0
-1009 -1012 0
-1009 -1013 0
-1009 -1014 0
-1009 -1015 0
-1009 -1016 0
-1009 -1017 0
-1009 -1018 0
-1009 -1019 0
-1009 -1020 0
-1009 -1021 0
-1009 -1022 0
-1009 -1023 0
-1009 -1024 0
-1009 -1025 0
-1009 -1026 0
-1009 -1027 0
-1009 -1028 0
-1009 -1029 0
-1009 -1030 0
-1009 -1031 0
-1009 -1032 0
-1009 -1033 0
-1009 -1034 0
-1009 -1035 0
-1009 -1036 0
-1009 -1037 0
-1009 -1038 0
-1009 -1039 0
-1009 -1040 0
-1009 -1041 0
-1009 -1042 0
-1009 -1043 0
-1009 -1044 0
-1009 -1045 0
-1009 -1046 0
-1009 -1047 0
-1009 -1048 0
-1009 -1049 0
-1009 -1050 0
-1009 -1051 0
-1009 -1052 0
-1009 -1053 0
-1009 -1054 0
-1009 -1055 0
-1009 -1056 0
-1009 -1057 0
-1009 -1058 0
-1009 -1059 0
-1009 -1060 0
-1009 -1061 0
-1009 -1062 0
-1010 -1011 0
-1010 -1012 0
-1010 -1013 0
-1010 -1014 0
-1010 -1015 0
-1010 -1016 0
-1010 -1017 0
-1010 -1018 0
-1010 -1019 0
-1010 -1020 0
-1010 -1021 0
-1010 -1022 0
-1010 -1023 0
-1010 -1024 0
-1010 -1025 0
-1010 -1026 0
-1010 -1027 0
-1010 -1028 0
-1010 -1029 0
-1010 -1030 0
-1010 -1031 0
-1010 -1032 0
-1010 -1033 0
-1010 -1034 0
-1010 -1035 0
-1010 -1036 0
-1010 -1037 0
-1010 -1038 0
-1010 -1039 0
-1010 -1040 0
-1010 -1041 0
-1010 -1042 0
-1010 -1043 0
-1010 -1044 0
-1010 -1045 0
-1010 -1046 0
-1010 -1047 0
-1010 -1048 0
-1010 -1049 0
-1010 -1050 0
-1010 -1051 0
-1010 -1052 0
-1010 -1053 0
-1010 -1054 0
-1010 -1055 0
-1010 -1056 0
-1010 -1057 0
-1010 -1058 0
-1010 -1059 0
-1010 -1060 0
-1010 -1061 0
-1010 -1062 0
-1011 -1012 0
-1011 -1013 0
-1011 -1014 0
-1011 -1015 0
-1011 -1016 0
-1011 -1017 0
-1011 -1018 0
-1011 -1019 0
-1011 -1020 0
-1011 -1021 0
-1011 -1022 0
-1011 -1023 0
-1011 -1024 0
-1011 -1025 0
-1011 -1026 0
-1011 -1027 0
-1011 -1028 0
-1011 -1029 0
-1011 -1030 0
-1011 -1031 0
-1011 -1032 0
-1011 -1033 0
-1011 -1034 0
-1011 -1035 0
-1011 -1036 0
-1011 -1037 0
-1011 -1038 0
-1011 -1039 0
-1011 -1040 0
-1011 -1041 0
-1011 -1042 0
-1011 -1043 0
-1011 -1044 0
-1011 -1045 0
-1011 -1046 0
-1011 -1047 0
-1011 -1048 0
-1011 -1049 0
-1011 -1050 0
-1011 -1051 0
-1011 -1052 0
-1011 -1053 0
-1011 -1054 0
-1011 -1055 0
-1011 -1056 0
-1011 -1057 0
-1011 -1058 0
-1011 -1059 0
-1011 -1060 0
-1011 -1061 0
-1011 -1062 0
-1012 -1013 0
-1012 -1014 0
-1012 -1015 0
-1012 -1016 0
-1012 -1017 0
-1012 -1018 0
-1012 -1019 0
-1012 -1020 0
-1012 -1021 0
-1012 -1022 0
-1012 -1023 0
-1012 -1024 0
-1012 -1025 0
-1012 -1026 0
-1012 -1027 0
-1012 -1028 0
-1012 -1029 0
-1012 -1030 0
-1012 -1031 0
-1012 -1032 0
-1012 -1033 0
-1012 -1034 0
-1012 -1035 0
-1012 -1036 0
-1012 -1037 0
-1012 -1038 0
-1012 -1039 0
-1012 -1040 0
-1012 -1041 0
-1012 -1042 0
-1012 -1043 0
-1012 -1044 0
-1012 -1045 0
-1012 -1046 0
-1012 -1047 0
-1012 -1048 0
-1012 -1049 0
-1012 -1050 0
-1012 -1051 0
-1012 -1052 0
-1012 -1053 0
-1012 -1054 0
-1012 -1055 0
-1012 -1056 0
-1012 -1057 0
-1012 -1058 0
-1012 -1059 0
-1012 -1060 0
-1012 -1061 0
-1012 -1062 0
-1013 -1014 0
-1013 -1015 0
-1013 -1016 0
-1013 -1017 0
-1013 -1018 0
-1013 -1019 0
-1013 -1020 0
-1013 -1021 0
-1013 -1022 0
-1013 -1023 0
-1013 -1024 0
-1013 -1025 0
-1013 -1026 0
-1013 -1027 0
-1013 -1028 0
-1013 -1029 0
-1013 -1030 0
-1013 -1031 0
-1013 -1032 0
-1013 -1033 0
-1013 -1034 0
-1013 -1035 0
-1013 -1036 0
-1013 -1037 0
-1013 -1038 0
-1013 -1039 0
-1013 -1040 0
-1013 -1041 0
-1013 -1042 0
-1013 -1043 0
-1013 -1044 0
-1013 -1045 0
-1013 -1046 0
-1013 -1047 0
-1013 -1048 0
-1013 -1049 0
-1013 -1050 0
-1013 -1051 0
-1013 -1052 0
-1013 -1053 0
-1013 -1054 0
-1013 -1055 0
-1013 -1056 0
-1013 -1057 0
-1013 -1058 0
-1013 -1059 0
-1013 -1060 0
-1013 -1061 0
-1013 -1062 0
-1014 -1015 0
-1014 -1016 0
-1014 -1017 0
-1014 -1018 0
-1014 -1019 0
-1014 -1020 0
-1014 -1021 0
-1014 -1022 0
-1014 -1023 0
-1014 -1024 0
-1014 -1025 0
-1014 -1026 0
-1014 -1027 0
-1014 -1028 0
-1014 -1029 0
-1014 -1030 0
-1014 -1031 0
-1014 -1032 0
-1014 -1033 0
-1014 -1034 0
-1014 -1035 0
-1014 -1036 0
-1014 -1037 0
-1014 -1038 0
-1014 -1039 0
-1014 -1040 0
-1014 -1041 0
-1014 -1042 0
-1014 -1043 0
-1014 -1044 0
-1014 -1045 0
-1014 -1046 0
-1014 -1047 0
-1014 -1048 0
-1014 -1049 0
-1014 -1050 0
-1014 -1051 0
-1014 -1052 0
-1014 -1053 0
-1014 -1054 0
-1014 -1055 0
-1014 -1056 0
-1014 -1057 0
-1014 -1058 0
-1014 -1059 0
-1014 -1060 0
-1014 -1061 0
-1014 -1062 0
-1015 -1016 0
-1015 -1017 0
-1015 -1018 0
-1015 -1019 0
-1015 -1020 0
-1015 -1021 0
-1015 -1022 0
-1015 -1023 0
-1015 -1024 0
-1015 -1025 0
-1015 -1026 0
-1015 -1027 0
-1015 -1028 0
-1015 -1029 0
-1015 -1030 0
-1015 -1031 0
-1015 -1032 0
-1015 -1033 0
-1015 -1034 0
-1015 -1035 0
-1015 -1036 0
-1015 -1037 0
-1015 -1038 0
-1015 -1039 0
-1015 -1040 0
-1015 -1041 0
-1015 -1042 0
-1015 -1043 0
-1015 -1044 0
-1015 -1045 0
-1015 -1046 0
-1015 -1047 0
-1015 -1048 0
-1015 -1049 0
-1015 -1050 0
-1015 -1051 0
-1015 -1052 0
-1015 -1053 0
-1015 -1054 0
-1015 -1055 0
-1015 -1056 0
-1015 -1057 0
-1015 -1058 0
-1015 -1059 0
-1015 -1060 0
-1015 -1061 0
-1015 -1062 0
-1016 -1017 0
-1016 -1018 0
-1016 -1019 0
-1016 -1020 0
-1016 -1021 0
-1016 -1022 0
-1016 -1023 0
-1016 -1024 0
-1016 -1025 0
-1016 -1026 0
-1016 -1027 0
-1016 -1028 0
-1016 -1029 0
-1016 -1030 0
-1016 -1031 0
-1016 -1032 0
-1016 -1033 0
-1016 -1034 0
-1016 -1035 0
-1016 -1036 0
-1016 -1037 0
-1016 -1038 0
-1016 -1039 0
-1016 -1040 0
-1016 -1041 0
-1016 -1042 0
-1016 -1043 0
-1016 -1044 0
-1016 -1045 0
-1016 -1046 0
-1016 -1047 0
-1016 -1048 0
-1016 -1049 0
-1016 -1050 0
-1016 -1051 0
-1016 -1052 0
-1016 -1053 0
-1016 -1054 0
-1016 -1055 0
-1016 -1056 0
-1016 -1057 0
-1016 -1058 0
-1016 -1059 0
-1016 -1060 0
-1016 -1061 0
-1016 -1062 0
-1017 -1018 0
-1017 -1019 0
-1017 -1020 0
-1017 -1021 0
-1017 -1022 0
-1017 -1023 0
-1017 -1024 0
-1017 -1025 0
-1017 -1026 0
-1017 -1027 0
-1017 -1028 0
-1017 -1029 0
-1017 -1030 0
-1017 -1031 0
-1017 -1032 0
-1017 -1033 0
-1017 -1034 0
-1017 -1035 0
-1017 -1036 0
-1017 -1037 0
-1017 -1038 0
-1017 -1039 0
-1017 -1040 0
-1017 -1041 0
-1017 -1042 0
-1017 -1043 0
-1017 -1044 0
-1017 -1045 0
-1017 -1046 0
-1017 -1047 0
-1017 -1048 0
-1017 -1049 0
-1017 -1050 0
-1017 -1051 0
-1017 -1052 0
-1017 -1053 0
-1017 -1054 0
-1017 -1055 0
-1017 -1056 0
-1017 -1057 0
-1017 -1058 0
-1017 -1059 0
-1017 -1060 0
-1017 -1061 0
-1017 -1062 0
-1018 -1019 0
-1018 -1020 0
-1018 -1021 0
-1018 -1022 0
-1018 -1023 0
-1018 -1024 0
-1018 -1025 0
-1018 -1026 0
-1018 -1027 0
-1018 -1028 0
-1018 -1029 0
-1018 -1030 0
-1018 -1031 0
-1018 -1032 0
-1018 -1033 0
-1018 -1034 0
-1018 -1035 0
-1018 -1036 0
-1018 -1037 0
-1018 -1038 0
-1018 -1039 0
-1018 -1040 0
-1018 -1041 0
-1018 -1042 0
-1018 -1043 0
-1018 -1044 0
-1018 -1045 0
-1018 -1046 0
-1018 -1047 0
-1018 -1048 0
-1018 -1049 0
-1018 -1050 0
-1018 -1051 0
-1018 -1052 0
-1018 -1053 0
-1018 -1054 0
-1018 -1055 0
-1018 -1056 0
-1018 -1057 0
-1018 -1058 0
-1018 -1059 0
-1018 -1060 0
-1018 -1061 0
-1018 -1062 0
-1019 -1020 0
-1019 -1021 0
-1019 -1022 0
-1019 -1023 0
-1019 -1024 0
-1019 -1025 0
-1019 -1026 0
-1019 -1027 0
-1019 -1028 0
-1019 -1029 0
-1019 -1030 0
-1019 -1031 0
-1019 -1032 0
-1019 -1033 0
-1019 -1034 0
-1019 -1035 0
-1019 -1036 0
-1019 -1037 0
-1019 -1038 0
-1019 -1039 0
-1019 -1040 0
-1019 -1041 0
-1019 -1042 0
-1019 -1043 0
-1019 -1044 0
-1019 -1045 0
-1019 -1046 0
-1019 -1047 0
-1019 -1048 0
-1019 -1049 0
-1019 -1050 0
-1019 -1051 0
-1019 -1052 0
-1019 -1053 0
-1019 -1054 0
-1019 -1055 0
-1019 -1056 0
-1019 -1057 0
-1019 -1058 0
-1019 -1059 0
-1019 -1060 0
-1019 -1061 0
-1019 -1062 0
-1020 -1021 0
-1020 -1022 0
-1020 -1023 0
-1020 -1024 0
-1020 -1025 0
-1020 -1026 0
-1020 -1027 0
-1020 -1028 0
-1020 -1029 0
-1020 -1030 0
-1020 -1031 0
-1020 -1032 0
-1020 -1033 0
-1020 -1034 0
-1020 -1035 0
-1020 -1036 0
-1020 -1037 0
-1020 -1038 0
-1020 -1039 0
-1020 -1040 0
-1020 -1041 0
-1020 -1042 0
-1020 -1043 0
-1020 -1044 0
-1020 -1045 0
-1020 -1046 0
-1020 -1047 0
-1020 -1048 0
-1020 -1049 0
-1020 -1050 0
-1020 -1051 0
-1020 -1052 0
-1020 -1053 0
-1020 -1054 0
-1020 -1055 0
-1020 -1056 0
-1020 -1057 0
-1020 -1058 0
-1020 -1059 0
-1020 -1060 0
-1020 -1061 0
-1020 -1062 0
-1021 -1022 0
-1021 -1023 0
-1021 -1024 0
-1021 -1025 0
-1021 -1026 0
-1021 -1027 0
-1021 -1028 0
-1021 -1029 0
-1021 -1030 0
-1021 -1031 0
-1021 -1032 0
-1021 -1033 0
-1021 -1034 0
-1021 -1035 0
-1021 -1036 0
-1021 -1037 0
-1021 -1038 0
-1021 -1039 0
-1021 -1040 0
-1021 -1041 0
-1021 -1042 0
-1021 -1043 0
-1021 -1044 0
-1021 -1045 0
-1021 -1046 0
-1021 -1047 0
-1021 -1048 0
-1021 -1049 0
-1021 -1050 0
-1021 -1051 0
-1021 -1052 0
-1021 -1053 0
-1021 -1054 0
-1021 -1055 0
-1021 -1056 0
-1021 -1057 0
-1021 -1058 0
-1021 -1059 0
-1021 -1060 0
-1021 -1061 0
-1021 -1062 0
-1022 -1023 0
-1022 -1024 0
-1022 -1025 0
-1022 -1026 0
-1022 -1027 0
-1022 -1028 0
-1022 -1029 0
-1022 -1030 0
-1022 -1031 0
-1022 -1032 0
-1022 -1033 0
-1022 -1034 0
-1022 -1035 0
-1022 -1036 0
-1022 -1037 0
-1022 -1038 0
-1022 -1039 0
-1022 -1040 0
-1022 -1041 0
-1022 -1042 0
-1022 -1043 0
-1022 -1044 0
-1022 -1045 0
-1022 -1046 0
-1022 -1047 0
-1022 -1048 0
-1022 -1049 0
-1022 -1050 0
-1022 -1051 0
-1022 -1052 0
-1022 -1053 0
-1022 -1054 0
-1022 -1055 0
-1022 -1056 0
-1022 -1057 0
-1022 -1058 0
-1022 -1059 0
-1022 -1060 0
-1022 -1061 0
-1022 -1062 0
-1023 -1024 0
-1023 -1025 0
-1023 -1026 0
-1023 -1027 0
-1023 -1028 0
-1023 -1029 0
-1023 -1030 0
-1023 -1031 0
-1023 -1032 0
-1023 -1033 0
-1023 -1034 0
-1023 -1035 0
-1023 -1036 0
-1023 -1037 0
-1023 -1038 0
-1023 -1039 0
-1023 -1040 0
-1023 -1041 0
-1023 -1042 0
-1023 -1043 0
-1023 -1044 0
-1023 -1045 0
-1023 -1046 0
-1023 -1047 0
-1023 -1048 0
-1023 -1049 0
-1023 -1050 0
-1023 -1051 0
-1023 -1052 0
-1023 -1053 0
-1023 -1054 0
-1023 -1055 0
-1023 -1056 0
-1023 -1057 0
-1023 -1058 0
-1023 -1059 0
-1023 -1060 0
-1023 -1061 0
-1023 -1062 0
-1024 -1025 0
-1024 -1026 0
-1024 -1027 0
-1024 -1028 0
-1024 -1029 0
-1024 -1030 0
-1024 -1031 0
-1024 -1032 0
-1024 -1033 0
-1024 -1034 0
-1024 -1035 0
-1024 -1036 0
-1024 -1037 0
-1024 -1038 0
-1024 -1039 0
-1024 -1040 0
-1024 -1041 0
-1024 -1042 0
-1024 -1043 0
-1024 -1044 0
-1024 -1045 0
-1024 -1046 0
-1024 -1047 0
-1024 -1048 0
-1024 -1049 0
-1024 -1050 0
-1024 -1051 0
-1024 -1052 0
-1024 -1053 0
-1024 -1054 0
-1024 -1055 0
-1024 -1056 0
-1024 -1057 0
-1024 -1058 0
-1024 -1059 0
-1024 -1060 0
-1024 -1061 0
-1024 -1062 0
-1025 -1026 0
-1025 -1027 0
-1025 -1028 0
-1025 -1029 0
-1025 -1030 0
-1025 -1031 0
-1025 -1032 0
-1025 -1033 0
-1025 -1034 0
-1025 -1035 0
-1025 -1036 0
-1025 -1037 0
-1025 -1038 0
-1025 -1039 0
-1025 -1040 0
-1025 -1041 0
-1025 -1042 0
-1025 -1043 0
-1025 -1044 0
-1025 -1045 0
-1025 -1046 0
-1025 -1047 0
-1025 -1048 0
-1025 -1049 0
-1025 -1050 0
-1025 -1051 0
-1025 -1052 0
-1025 -1053 0
-1025 -1054 0
-1025 -1055 0
-1025 -1056 0
-1025 -1057 0
-1025 -1058 0
-1025 -1059 0
-1025 -1060 0
-1025 -1061 0
-1025 -1062 0
-1026 -1027 0
-1026 -1028 0
-1026 -1029 0
-1026 -1030 0
-1026 -1031 0
-1026 -1032 0
-1026 -1033 0
-1026 -1034 0
-1026 -1035 0
-1026 -1036 0
-1026 -1037 0
-1026 -1038 0
-1026 -1039 0
-1026 -1040 0
-1026 -1041 0
-1026 -1042 0
-1026 -1043 0
-1026 -1044 0
-1026 -1045 0
-1026 -1046 0
-1026 -1047 0
-1026 -1048 0
-1026 -1049 0
-1026 -1050 0
-1026 -1051 0
-1026 -1052 0
-1026 -1053 0
-1026 -1054 0
-1026 -1055 0
-1026 -1056 0
-1026 -1057 0
-1026 -1058 0
-1026 -1059 0
-1026 -1060 0
-1026 -1061 0
-1026 -1062 0
-1027 -1028 0
-1027 -1029 0
-1027 -1030 0
-1027 -1031 0
-1027 -1032 0
-1027 -1033 0
-1027 -1034 0
-1027 -1035 0
-1027 -1036 0
-1027 -1037 0
-1027 -1038 0
-1027 -1039 0
-1027 -1040 0
-1027 -1041 0
-1027 -1042 0
-1027 -1043 0
-1027 -1044 0
-1027 -1045 0
-1027 -1046 0
-1027 -1047 0
-1027 -1048 0
-1027 -1049 0
-1027 -1050 0
-1027 -1051 0
-1027 -1052 0
-1027 -1053 0
-1027 -1054 0
-1027 -1055 0
-1027 -1056 0
-1027 -1057 0
-1027 -1058 0
-1027 -1059 0
-1027 -1060 0
-1027 -1061 0
-1027 -1062 0
-1028 -1029 0
-1028 -1030 0
-1028 -1031 0
-1028 -1032 0
-1028 -1033 0
-1028 -1034 0
-1028 -1035 0
-1028 -1036 0
-1028 -1037 0
-1028 -1038 0
-1028 -1039 0
-1028 -1040 0
-1028 -1041 0
-1028 -1042 0
-1028 -1043 0
-1028 -1044 0
-1028 -1045 0
-1028 -1046 0
-1028 -1047 0
-1028 -1048 0
-1028 -1049 0
-1028 -1050 0
-1028 -1051 0
-1028 -1052 0
-1028 -1053 0
-1028 -1054 0
-1028 -1055 0
-1028 -1056 0
-1028 -1057 0
-1028 -1058 0
-1028 -1059 0
-1028 -1060 0
-1028 -1061 0
-1028 -1062 0
-1029 -1030 0
-1029 -1031 0
-1029 -1032 0
-1029 -1033 0
-1029 -1034 0
-1029 -1035 0
-1029 -1036 0
-1029 -1037 0
-1029 -1038 0
-1029 -1039 0
-1029 -1040 0
-1029 -1041 0
-1029 -1042 0
-1029 -1043 0
-1029 -1044 0
-1029 -1045 0
-1029 -1046 0
-1029 -1047 0
-1029 -1048 0
-1029 -1049 0
-1029 -1050 0
-1029 -1051 0
-1029 -1052 0
-1029 -1053 0
-1029 -1054 0
-1029 -1055 0
-1029 -1056 0
-1029 -1057 0
-1029 -1058 0
-1029 -1059 0
-1029 -1060 0
-1029 -1061 0
-1029 -1062 0
-1030 -1031 0
-1030 -1032 0
-1030 -1033 0
-1030 -1034 0
-1030 -1035 0
-1030 -1036 0
-1030 -1037 0
-1030 -1038 0
-1030 -1039 0
-1030 -1040 0
-1030 -1041 0
-1030 -1042 0
-1030 -1043 0
-1030 -1044 0
-1030 -1045 0
-1030 -1046 0
-1030 -1047 0
-1030 -1048 0
-1030 -1049 0
-1030 -1050 0
-1030 -1051 0
-1030 -1052 0
-1030 -1053 0
-1030 -1054 0
-1030 -1055 0
-1030 -1056 0
-1030 -1057 0
-1030 -1058 0
-1030 -1059 0
-1030 -1060 0
-1030 -1061 0
-1030 -1062 0
-1031 -1032 0
-1031 -1033 0
-1031 -1034 0
-1031 -1035 0
-1031 -1036 0
-1031 -1037 0
-1031 -1038 0
-1031 -1039 0
-1031 -1040 0
-1031 -1041 0
-1031 -1042 0
-1031 -1043 0
-1031 -1044 0
-1031 -1045 0
-1031 -1046 0
-1031 -1047 0
-1031 -1048 0
-1031 -1049 0
-1031 -1050 0
-1031 -1051 0
-1031 -1052 0
-1031 -1053 0
-1031 -1054 0
-1031 -1055 0
-1031 -1056 0
-1031 -1057 0
-1031 -1058 0
-1031 -1059 0
-1031 -1060 0
-1031 -1061 0
-1031 -1062 0
-1032 -1033 0
-1032 -1034 0
-1032 -1035 0
-1032 -1036 0
-1032 -1037 0
-1032 -1038 0
-1032 -1039 0
-1032 -1040 0
-1032 -1041 0
-1032 -1042 0
-1032 -1043 0
-1032 -1044 0
-1032 -1045 0
-1032 -1046 0
-1032 -1047 0
-1032 -1048 0
-1032 -1049 0
-1032 -1050 0
-1032 -1051 0
-1032 -1052 0
-1032 -1053 0
-1032 -1054 0
-1032 -1055 0
-1032 -1056 0
-1032 -1057 0
-1032 -1058 0
-1032 -1059 0
-1032 -1060 0
-1032 -1061 0
-1032 -1062 0
-1033 -1034 0
-1033 -1035 0
-1033 -1036 0
-1033 -1037 0
-1033 -1038 0
-1033 -1039 0
-1033 -1040 0
-1033 -1041 0
-1033 -1042 0
-1033 -1043 0
-1033 -1044 0
-1033 -1045 0
-1033 -1046 0
-1033 -1047 0
-1033 -1048 0
-1033 -1049 0
-1033 -1050 0
-1033 -1051 0
-1033 -1052 0
-1033 -1053 0
-1033 -1054 0
-1033 -1055 0
-1033 -1056 0
-1033 -1057 0
-1033 -1058 0
-1033 -1059 0
-1033 -1060 0
-1033 -1061 0
-1033 -1062 0
-1034 -1035 0
-1034 -1036 0
-1034 -1037 0
-1034 -1038 0
-1034 -1039 0
-1034 -1040 0
-1034 -1041 0
-1034 -1042 0
-1034 -1043 0
-1034 -1044 0
-1034 -1045 0
-1034 -1046 0
-1034 -1047 0
-1034 -1048 0
-1034 -1049 0
-1034 -1050 0
-1034 -1051 0
-1034 -1052 0
-1034 -1053 0
-1034 -1054 0
-1034 -1055 0
-1034 -1056 0
-1034 -1057 0
-1034 -1058 0
-1034 -1059 0
-1034 -1060 0
-1034 -1061 0
-1034 -1062 0
-1035 -1036 0
-1035 -1037 0
-1035 -1038 0
-1035 -1039 0
-1035 -1040 0
-1035 -1041 0
-1035 -1042 0
-1035 -1043 0
-1035 -1044 0
-1035 -1045 0
-1035 -1046 0
-1035 -1047 0
-1035 -1048 0
-1035 -1049 0
-1035 -1050 0
-1035 -1051 0
-1035 -1052 0
-1035 -1053 0
-1035 -1054 0
-1035 -1055 0
-1035 -1056 0
-1035 -1057 0
-1035 -1058 0
-1035 -1059 0
-1035 -1060 0
-1035 -1061 0
-1035 -1062 0
-1036 -1037 0
-1036 -1038 0
-1036 -1039 0
-1036 -1040 0
-1036 -1041 0
-1036 -1042 0
-1036 -1043 0
-1036 -1044 0
-1036 -1045 0
-1036 -1046 0
-1036 -1047 0
-1036 -1048 0
-1036 -1049 0
-1036 -1050 0
-1036 -1051 0
-1036 -1052 0
-1036 -1053 0
-1036 -1054 0
-1036 -1055 0
-1036 -1056 0
-1036 -1057 0
-1036 -1058 0
-1036 -1059 0
-1036 -1060 0
-1036 -1061 0
-1036 -1062 0
-1037 -1038 0
-1037 -1039 0
-1037 -1040 0
-1037 -1041 0
-1037 -1042 0
-1037 -1043 0
-1037 -1044 0
-1037 -1045 0
-1037 -1046 0
-1037 -1047 0
-1037 -1048 0
-1037 -1049 0
-1037 -1050 0
-1037 -1051 0
-1037 -1052 0
-1037 -1053 0
-1037 -1054 0
-1037 -1055 0
-1037 -1056 0
-1037 -1057 0
-1037 -1058 0
-1037 -1059 0
-1037 -1060 0
-1037 -1061 0
-1037 -1062 0
-1038 -1039 0
-1038 -1040 0
-1038 -1041 0
-1038 -1042 0
-1038 -1043 0
-1038 -1044 0
-1038 -1045 0
-1038 -1046 0
-1038 -1047 0
-1038 -1048 0
-1038 -1049 0
-1038 -1050 0
-1038 -1051 0
-1038 -1052 0
-1038 -1053 0
-1038 -1054 0
-1038 -1055 0
-1038 -1056 0
-1038 -1057 0
-1038 -1058 0
-1038 -1059 0
-1038 -1060 0
-1038 -1061 0
-1038 -1062 0
-1039 -1040 0
-1039 -1041 0
-1039 -1042 0
-1039 -1043 0
-1039 -1044 0
-1039 -1045 0
-1039 -1046 0
-1039 -1047 0
-1039 -1048 0
-1039 -1049 0
-1039 -1050 0
-1039 -1051 0
-1039 -1052 0
-1039 -1053 0
-1039 -1054 0
-1039 -1055 0
-1039 -1056 0
-1039 -1057 0
-1039 -1058 0
-1039 -1059 0
-1039 -1060 0
-1039 -1061 0
-1039 -1062 0
-1040 -1041 0
-1040 -1042 0
-1040 -1043 0
-1040 -1044 0
-1040 -1045 0
-1040 -1046 0
-1040 -1047 0
-1040 -1048 0
-1040 -1049 0
-1040 -1050 0
-1040 -1051 0
-1040 -1052 0
-1040 -1053 0
-1040 -1054 0
-1040 -1055 0
-1040 -1056 0
-1040 -1057 0
-1040 -1058 0
-1040 -1059 0
-1040 -1060 0
-1040 -1061 0
-1040 -1062 0
-1041 -1042 0
-1041 -1043 0
-1041 -1044 0
-1041 -1045 0
-1041 -1046 0
-1041 -1047 0
-1041 -1048 0
-1041 -1049 0
-1041 -1050 0
-1041 -1051 0
-1041 -1052 0
-1041 -1053 0
-1041 -1054 0
-1041 -1055 0
-1041 -1056 0
-1041 -1057 0
-1041 -1058 0
-1041 -1059 0
-1041 -1060 0
-1041 -1061 0
-1041 -1062 0
-1042 -1043 0
-1042 -1044 0
-1042 -1045 0
-1042 -1046 0
-1042 -1047 0
-1042 -1048 0
-1042 -1049 0
-1042 -1050 0
-1042 -1051 0
-1042 -1052 0
-1042 -1053 0
-1042 -1054 0
-1042 -1055 0
-1042 -1056 0
-1042 -1057 0
-1042 -1058 0
-1042 -1059 0
-1042 -1060 0
-1042 -1061 0
-1042 -1062 0
-1043 -1044 0
-1043 -1045 0
-1043 -1046 0
-1043 -1047 0
-1043 -1048 0
-1043 -1049 0
-1043 -1050 0
-1043 -1051 0
-1043 -1052 0
-1043 -1053 0
-1043 -1054 0
-1043 -1055 0
-1043 -1056 0
-1043 -1057 0
-1043 -1058 0
-1043 -1059 0
-1043 -1060 0
-1043 -1061 0
-1043 -1062 0
-1044 -1045 0
-1044 -1046 0
-1044 -1047 0
-1044 -1048 0
-1044 -1049 0
-1044 -1050 0
-1044 -1051 0
-1044 -1052 0
-1044 -1053 0
-1044 -1054 0
-1044 -1055 0
-1044 -1056 0
-1044 -1057 0
-1044 -1058 0
-1044 -1059 0
-1044 -1060 0
-1044 -1061 0
-1044 -1062 0
-1045 -1046 0
-1045 -1047 0
-1045 -1048 0
-1045 -1049 0
-1045 -1050 0
-1045 -1051 0
-1045 -1052 0
-1045 -1053 0
-1045 -1054 0
-1045 -1055 0
-1045 -1056 0
-1045 -1057 0
-1045 -1058 0
-1045 -1059 0
-1045 -1060 0
-1045 -1061 0
-1045 -1062 0
-1046 -1047 0
-1046 -1048 0
-1046 -1049 0
-1046 -1050 0
-1046 -1051 0
-1046 -1052 0
-1046 -1053 0
-1046 -1054 0
-1046 -1055 0
-1046 -1056 0
-1046 -1057 0
-1046 -1058 0
-1046 -1059 0
-1046 -1060 0
-1046 -1061 0
-1046 -1062 0
-1047 -1048 0
-1047 -1049 0
-1047 -1050 0
-1047 -1051 0
-1047 -1052 0
-1047 -1053 0
-1047 -1054 0
-1047 -1055 0
-1047 -1056 0
-1047 -1057 0
-1047 -1058 0
-1047 -1059 0
-1047 -1060 0
-1047 -1061 0
-1047 -1062 0
-1048 -1049 0
-1048 -1050 0
-1048 -1051 0
-1048 -1052 0
-1048 -1053 0
-1048 -1054 0
-1048 -1055 0
-1048 -1056 0
-1048 -1057 0
-1048 -1058 0
-1048 -1059 0
-1048 -1060 0
-1048 -1061 0
-1048 -1062 0
-1049 -1050 0
-1049 -1051 0
-1049 -1052 0
-1049 -1053 0
-1049 -1054 0
-1049 -1055 0
-1049 -1056 0
-1049 -1057 0
-1049 -1058 0
-1049 -1059 0
-1049 -1060 0
-1049 -1061 0
-1049 -1062 0
-1050 -1051 0
-1050 -1052 0
-1050 -1053 0
-1050 -1054 0
-1050 -1055 0
-1050 -1056 0
-1050 -1057 0
-1050 -1058 0
-1050 -1059 0
-1050 -1060 0
-1050 -1061 0
-1050 -1062 0
-1051 -1052 0
-1051 -1053 0
-1051 -1054 0
-1051 -1055 0
-1051 -1056 0
-1051 -1057 0
-1051 -1058 0
-1051 -1059 0
-1051 -1060 0
-1051 -1061 0
-1051 -1062 0
-1052 -1053 0
-1052 -1054 0
-1052 -1055 0
-1052 -1056 0
-1052 -1057 0
-1052 -1058 0
-1052 -1059 0
-1052 -1060 0
-1052 -1061 0
-1052 -1062 0
-1053 -1054 0
-1053 -1055 0
-1053 -1056 0
-1053 -1057 0
-1053 -1058 0
-1053 -1059 0
-1053 -1060 0
-1053 -1061 0
-1053 -1062 0
-1054 -1055 0
-1054 -1056 0
-1054 -1057 0
-1054 -1058 0
-1054 -1059 0
-1054 -1060 0
-1054 -1061 0
-1054 -1062 0
-1055 -1056 0
-1055 -1057 0
-1055 -1058 0
-1055 -1059 0
-1055 -1060 0
-1055 -1061 0
-1055 -1062 0
-1056 -1057 0
-1056 -1058 0
-1056 -1059 0
-1056 -1060 0
-1056 -1061 0
-1056 -1062 0
-1057 -1058 0
-1057 -1059 0
-1057 -1060 0
-1057 -1061 0
-1057 -1062 0
-1058 -1059 0
-1058 -1060 0
-1058 -1061 0
-1058 -1062 0
-1059 -1060 0
-1059 -1061 0
-1059 -1062 0
-1060 -1061 0
-1060 -1062 0
-1061 -1062 0
-150 299 979 980 981 982 983 984 985 986 987 988 989 990 991 992 993 994 995 996 997 998 999 1000 1001 1002 0
150 -299 979 980 981 982 983 984 985 986 987 988 989 990 991 992 993 994 995 996 997 998 999 1000 1001 1002 0
-151 300 979 980 981 982 983 984 985 986 987 988 989 990 991 992 993 994 995 996 997 998 999 1000 1001 1002 0
151 -300 979 980 981 982 983 984 985 986 987 988 989 990 991 992 993 994 995 996 997 998 999 1000 1001 1002 0
-152 301 979 980 981 982 983 984 985 986 987 988 989 990 991 992 993 994 995 996 997 998 999 1000 1001 1002 0
152 -301 979 980 981 982 983 984 985 986 987 988 989 990 991 992 993 994 995 996 997 998 999 1000 1001 1002 0
-153 302 979 980 981 982 983 984 985 986 987 988 989 990 991 992 993 994 995 996 997 998 999 1000 1001 1002 0
153 -302 979 980 981 982 983 984 985 986 987 988 989 990 991 992 993 994 995 996 997 998 999 1000 1001 1002 0
-154 303 979 980 981 982 983 984 985 986 987 988 989 990 991 992 993 994 995 996 997 998 999 1000 1001 1002 0
154 -303 979 980 981 982 983 984 985 986 987 988 989 990 991 992 993 994 995 996 997 998 999 1000 1001 1002 0
-155 304 979 980 981 982 983 984 985 986 987 988 989 990 991 992 993 994 995 996 997 998 999 1000 1001 1002 0
155 -304 979 980 981 982 983 984 985 986 987 988 989 990 991 992 993 994 995 996 997 998 999 1000 1001 1002 0
-156 305 979 980 981 982 983 984 985 986 987 988 989 990 991 992 993 994 995 996 997 998 999 1000 1001 1002 0
156 -305 979 980 981 982 983 984 985 986 987 988 989 990 991 992 993 994 995 996 997 998 999 1000 1001 1002 0
-157 306 979 980 981 982 983 984 985 986 987 988 989 990 991 992 993 994 995 996 997 998 999 1000 1001 1002 0
157 -306 979 980 981 982 983 984 985 986 987 988 989 990 991 992 993 994 995 996 997 998 999 1000 1001 1002 0
-158 307 979 980 981 982 983 984 985 986 987 988 989 990 991 992 993 994 995 996 997 998 999 1000 1001 1002 0
158 -307 979 980 981 982 983 984 985 986 987 988 989 990 991 992 993 994 995 996 997 998 999 1000 1001 1002 0
-159 308 979 980 981 982 983 984 985 986 987 988 989 990 991 992 993 994 995 996 997 998 999 1000 1001 1002 0
159 -308 979 980 981 982 983 984 985 986 987 988 989 990 991 992 993 994 995 996 997 998 999 1000 1001 1002 0
-209 358 1003 1004 1005 1006 1007 1008 1009 1010 1011 1012 1013 1014 1015 1016 1017 1018 1019 1020 1021 1022 1023 1024 1025 1026 0
209 -358 1003 1004 1005 1006 1007 1008 1009 1010 1011 1012 1013 1014 1015 1016 1017 1018 1019 1020 1021 1022 1023 1024 1025 1026 0
-210 359 1003 1004 1005 1006 1007 1008 1009 1010 1011 1012 1013 1014 1015 1016 1017 1018 1019 1020 1021 1022 1023 1024 1025 1026 0
210 -359 1003 1004 1005 1006 1007 1008 1009 1010 1011 1012 1013 1014 1015 1016 1017 1018 1019 1020 1021 1022 1023 1024 1025 1026 0
-211 360 1003 1004 1005 1006 1007 1008 1009 1010 1011 1012 1013 1014 1015 1016 1017 1018 1019 1020 1021 1022 1023 1024 1025 1026 0
211 -360 1003 1004 1005 1006 1007 1008 1009 1010 1011 1012 1013 1014 1015 1016 1017 1018 1019 1020 1021 1022 1023 1024 1025 1026 0
-212 361 1003 1004 1005 1006 1007 1008 1009 1010 1011 1012 1013 1014 1015 1016 1017 1018 1019 1020 1021 1022 1023 1024 1025 1026 0
212 -361 1003 1004 1005 1006 1007 1008 1009 1010 1011 1012 1013 1014 1015 1016 1017 1018 1019 1020 1021 1022 1023 1024 1025 1026 0
-213 362 1003 1004 1005 1006 1007 1008 1009 1010 1011 1012 1013 1014 1015 1016 1017 1018 1019 1020 1021 1022 1023 1024 1025 1026 0
213 -362 1003 1004 1005 1006 1007 1008 1009 1010 1011 1012 1013 1014 1015 1016 1017 1018 1019 1020 1021 1022 1023 1024 1025 1026 0
-214 363 1003 1004 1005 1006 1007 1008 1009 1010 1011 1012 1013 1014 1015 1016 1017 1018 1019 1020 1021 1022 1023 1024 1025 1026 0
214 -363 1003 1004 1005 1006 1007 1008 1009 1010 1011 1012 1013 1014 1015 1016 1017 1018 1019 1020 1021 1022 1023 1024 1025 1026 0
-215 364 1003 1004 1005 1006 1007 1008 1009 1010 1011 1012 1013 1014 1015 1016 1017 1018 1019 1020 1021 1022 1023 1024 1025 1026 0
215 -364 1003 1004 1005 1006 1007 1008 1009 1010 1011 1012 1013 1014 1015 1016 1017 1018 1019 1020 1021 1022 1023 1024 1025 1026 0
-216 365 1003 1004 1005 1006 1007 1008 1009 1010 1011 1012 1013 1014 1015 1016 1017 1018 1019 1020 1021 1022 1023 1024 1025 1026 0
216 -365 1003 1004 1005 1006 1007 1008 1009 1010 1011 1012 1013 1014 1015 1016 1017 1018 1019 1020 1021 1022 1023 1024 1025 1026 0
-217 366 1003 1004 1005 1006 1007 1008 1009 1010 1011 1012 1013 1014 1015 1016 1017 1018 1019 1020 1021 1022 1023 1024 1025 1026 0
217 -366 1003 1004 1005 1006 1007 1008 1009 1010 1011 1012 1013 1014 1015 1016 1017 1018 1019 1020 1021 1022 1023 1024 1025 1026 0
-218 367 1003 1004 1005 1006 1007 1008 1009 1010 1011 1012 1013 1014 1015 1016 1017 1018 1019 1020 1021 1022 1023 1024 1025 1026 0
218 -367 1003 1004 1005 1006 1007 1008 1009 1010 1011 1012 1013 1014 1015 1016 1017 1018 1019 1020 1021 1022 1023 1024 1025 1026 0
-244 393 1027 1028 1029 1030 1031 1032 1033 1034 1035 1036 1037 1038 1039 1040 1041 1042 1043 1044 1045 1046 0
244 -393 1027 1028 1029 1030 1031 1032 1033 1034 1035 1036 1037 1038 1039 1040 1041 1042 1043 1044 1045 1046 0
-245 394 1027 1028 1029 1030 1031 1032 1033 1034 1035 1036 1037 1038 1039 1040 1041 1042 1043 1044 1045 1046 0
245 -394 1027 1028 1029 1030 1031 1032 1033 1034 1035 1036 1037 1038 1039 1040 1041 1042 1043 1044 1045 1046 0
-246 395 1027 1028 1029 1030 1031 1032 1033 1034 1035 1036 1037 1038 1039 1040 1041 1042 1043 1044 1045 1046 0
246 -395 1027 1028 1029 1030 1031 1032 1033 1034 1035 1036 1037 1038 1039 1040 1041 1042 1043 1044 1045 1046 0
-247 396 1027 1028 1029 1030 1031 1032 1033 1034 1035 1036 1037 1038 1039 1040 1041 1042 1043 1044 1045 1046 0
247 -396 1027 1028 1029 1030 1031 1032 1033 1034 1035 1036 1037 1038 1039 1040 1041 1042 1043 1044 1045 1046 0
-248 397 1027 1028 1029 1030 1031 1032 1033 1034 1035 1036 1037 1038 1039 1040 1041 1042 1043 1044 1045 1046 0
248 -397 1027 1028 1029 1030 1031 1032 1033 1034 1035 1036 1037 1038 1039 1040 1041 1042 1043 1044 1045 1046 0
-249 398 1027 1028 1029 1030 1031 1032 1033 1034 1035 1036 1037 1038 1039 1040 1041 1042 1043 1044 1045 1046 0
249 -398 1027 1028 1029 1030 1031 1032 1033 1034 1035 1036 1037 1038 1039 1040 1041 1042 1043 1044 1045 1046 0
-250 399 1027 1028 1029 1030 1031 1032 1033 1034 1035 1036 1037 1038 1039 1040 1041 1042 1043 1044 1045 1046 0
250 -399 1027 1028 1029 1030 1031 1032 1033 1034 1035 1036 1037 1038 1039 1040 1041 1042 1043 1044 1045 1046 0
-251 400 1027 1028 1029 1030 1031 1032 1033 1034 1035 1036 1037 1038 1039 1040 1041 1042 1043 1044 1045 1046 0
251 -400 1027 1028 1029 1030 1031 1032 1033 1034 1035 1036 1037 1038 1039 1040 1041 1042 1043 1044 1045 1046 0
-252 401 1027 1028 1029 1030 1031 1032 1033 1034 1035 1036 1037 1038 1039 1040 1041 1042 1043 1044 1045 1046 0
252 -401 1027 1028 1029 1030 1031 1032 1033 1034 1035 1036 1037 1038 1039 1040 1041 1042 1043 1044 1045 1046 0
-274 423 1047 1048 1049 1050 1051 1052 1053 1054 1055 1056 1057 1058 1059 1060 1061 1062 0
274 -423 1047 1048 1049 1050 1051 1052 1053 1054 1055 1056 1057 1058 1059 1060 1061 1062 0
-275 424 1047 1048 1049 1050 1051 1052 1053 1054 1055 1056 1057 1058 1059 1060 1061 1062 0
275 -424 1047 1048 1049 1050 1051 1052 1053 1054 1055 1056 1057 1058 1059 1060 1061 1062 0
-276 425 1047 1048 1049 1050 1051 1052 1053 1054 1055 1056 1057 1058 1059 1060 1061 1062 0
276 -425 1047 1048 1049 1050 1051 1052 1053 1054 1055 1056 1057 1058 1059 1060 1061 1062 0
-277 426 1047 1048 1049 1050 1051 1052 1053 1054 1055 1056 1057 1058 1059 1060 1061 1062 0
277 -426 1047 1048 1049 1050 1051 1052 1053 1054 1055 1056 1057 1058 1059 1060 1061 1062 0
-278 427 1047 1048 1049 1050 1051 1052 1053 1054 1055 1056 1057 1058 1059 1060 1061 1062 0
278 -427 1047 1048 1049 1050 1051 1052 1053 1054 1055 1056 1057 1058 1059 1060 1061 1062 0
-279 428 1047 1048 1049 1050 1051 1052 1053 1054 1055 1056 1057 1058 1059 1060 1061 1062 0
279 -428 1047 1048 1049 1050 1051 1052 1053 1054 1055 1056 1057 1058 1059 1060 1061 1062 0
-280 429 1047 1048 1049 1050 1051 1052 1053 1054 1055 1056 1057 1058 1059 1060 1061 1062 0
280 -429 1047 1048 1049 1050 1051 1052 1053 1054 1055 1056 1057 1058 1059 1060 1061 1062 0
-281 430 1047 1048 1049 1050 1051 1052 1053 1054 1055 1056 1057 1058 1059 1060 1061 1062 0
281 -430 1047 1048 1049 1050 1051 1052 1053 1054 1055 1056 1057 1058 1059 1060 1061 1062 0
-1063 313 0
-1063 448 0
-1063 462 0
-1063 454 0
-1063 -299 -305 0
-1064 313 0
-1064 449 0
-1064 462 0
-1064 454 0
-1064 -300 -305 0
-1065 313 0
-1065 450 0
-1065 462 0
-1065 454 0
-1065 -301 -305 0
-1066 313 0
-1066 451 0
-1066 462 0
-1066 454 0
-1066 -302 -305 0
-1067 313 0
-1067 452 0
-1067 462 0
-1067 454 0
-1067 -303 -305 0
-1068 313 0
-1068 453 0
-1068 462 0
-1068 454 0
-1068 -304 -305 0
-1069 313 0
-1069 448 0
-1069 462 0
-1069 358 0
-1069 -367 0
-1069 -518 0
-1069 -364 455 0
-1069 -364 -299 -306 0
-1069 -365 456 0
-1069 -365 -299 -307 0
-1069 -366 457 0
-1069 -366 -299 -308 0
-1070 313 0
-1070 449 0
-1070 462 0
-1070 359 0
-1070 -367 0
-1070 -518 0
-1070 -364 455 0
-1070 -364 -300 -306 0
-1070 -365 456 0
-1070 -365 -300 -307 0
-1070 -366 457 0
-1070 -366 -300 -308 0
-1071 313 0
-1071 450 0
-1071 462 0
-1071 360 0
-1071 -367 0
-1071 -518 0
-1071 -364 455 0
-1071 -364 -301 -306 0
-1071 -365 456 0
-1071 -365 -301 -307 0
-1071 -366 457 0
-1071 -366 -301 -308 0
-1072 313 0
-1072 451 0
-1072 462 0
-1072 361 0
-1072 -367 0
-1072 -518 0
-1072 -364 455 0
-1072 -364 -302 -306 0
-1072 -365 456 0
-1072 -365 -302 -307 0
-1072 -366 457 0
-1072 -366 -302 -308 0
-1073 313 0
-1073 452 0
-1073 462 0
-1073 362 0
-1073 -367 0
-1073 -518 0
-1073 -364 455 0
-1073 -364 -303 -306 0
-1073 -365 456 0
-1073 -365 -303 -307 0
-1073 -366 457 0
-1073 -366 -303 -308 0
-1074 313 0
-1074 453 0
-1074 462 0
-1074 363 0
-1074 -367 0
-1074 -518 0
-1074 -364 455 0
-1074 -364 -304 -306 0
-1074 -365 456 0
-1074 -365 -304 -307 0
-1074 -366 457 0
-1074 -366 -304 -308 0
-1075 313 0
-1075 448 0
-1075 462 0
-1075 393 0
-1075 -401 0
-1075 -552 0
-1075 -398 455 0
-1075 -398 -299 -306 0
-1075 -399 456 0
-1075 -399 -299 -307 0
-1075 -400 457 0
-1075 -400 -299 -308 0
-1076 313 0
-1076 449 0
-1076 462 0
-1076 393 394 0
-1076 -401 0
-1076 -552 0
-1076 -398 455 0
-1076 -398 -300 -306 0
-1076 -399 456 0
-1076 -399 -300 -307 0
-1076 -400 457 0
-1076 -400 -300 -308 0
-1077 313 0
-1077 450 0
-1077 462 0
-1077 394 395 0
-1077 -401 0
-1077 -552 0
-1077 -398 455 0
-1077 -398 -301 -306 0
-1077 -399 456 0
-1077 -399 -301 -307 0
-1077 -400 457 0
-1077 -400 -301 -308 0
-1078 313 0
-1078 451 0
-1078 462 0
-1078 395 396 0
-1078 -401 0
-1078 -552 0
-1078 -398 455 0
-1078 -398 -302 -306 0
-1078 -399 456 0
-1078 -399 -302 -307 0
-1078 -400 457 0
-1078 -400 -302 -308 0
-1079 313 0
-1079 452 0
-1079 462 0
-1079 396 397 0
-1079 -401 0
-1079 -552 0
-1079 -398 455 0
-1079 -398 -303 -306 0
-1079 -399 456 0
-1079 -399 -303 -307 0
-1079 -400 457 0
-1079 -400 -303 -308 0
-1080 313 0
-1080 453 0
-1080 462 0
-1080 397 0
-1080 -401 0
-1080 -552 0
-1080 -398 455 0
-1080 -398 -304 -306 0
-1080 -399 456 0
-1080 -399 -304 -307 0
-1080 -400 457 0
-1080 -400 -304 -308 0
-1081 313 0
-1081 448 0
-1081 462 0
-1081 423 0
-1081 -430 0
-1081 -581 0
-1081 -427 455 0
-1081 -427 -299 -306 0
-1081 -428 456 0
-1081 -428 -299 -307 0
-1081 -429 457 0
-1081 -429 -299 -308 0
-1082 313 0
-1082 449 0
-1082 462 0
-1082 423 424 0
-1082 -430 0
-1082 -581 0
-1082 -427 455 0
-1082 -427 -300 -306 0
-1082 -428 456 0
-1082 -428 -300 -307 0
-1082 -429 457 0
-1082 -429 -300 -308 0
-1083 313 0
-1083 450 0
-1083 462 0
-1083 423 424 425 0
-1083 -430 0
-1083 -581 0
-1083 -427 455 0
-1083 -427 -301 -306 0
-1083 -428 456 0
-1083 -428 -301 -307 0
-1083 -429 457 0
-1083 -429 -301 -308 0
-1084 313 0
-1084 451 0
-1084 462 0
-1084 424 425 426 0
-1084 -430 0
-1084 -581 0
-1084 -427 455 0
-1084 -427 -302 -306 0
-1084 -428 456 0
-1084 -428 -302 -307 0
-1084 -429 457 0
-1084 -429 -302 -308 0
-1085 313 0
-1085 452 0
-1085 462 0
-1085 425 426 0
-1085 -430 0
-1085 -581 0
-1085 -427 455 0
-1085 -427 -303 -306 0
-1085 -428 456 0
-1085 -428 -303 -307 0
-1085 -429 457 0
-1085 -429 -303 -308 0
-1086 313 0
-1086 453 0
-1086 462 0
-1086 426 0
-1086 -430 0
-1086 -581 0
-1086 -427 455 0
-1086 -427 -304 -306 0
-1086 -428 456 0
-1086 -428 -304 -307 0
-1086 -429 457 0
-1086 -429 -304 -308 0
-1087 369 0
-1087 507 0
-1087 518 0
-1087 513 0
-1087 -358 -364 0
-1088 369 0
-1088 508 0
-1088 518 0
-1088 513 0
-1088 -359 -364 0
-1089 369 0
-1089 509 0
-1089 518 0
-1089 513 0
-1089 -360 -364 0
-1090 369 0
-1090 510 0
-1090 518 0
-1090 513 0
-1090 -361 -364 0
-1091 369 0
-1091 511 0
-1091 518 0
-1091 513 0
-1091 -362 -364 0
-1092 369 0
-1092 512 0
-1092 518 0
-1092 513 0
-1092 -363 -364 0
-1093 369 0
-1093 507 0
-1093 518 0
-1093 299 0
-1093 -308 0
-1093 -462 0
-1093 -305 514 0
-1093 -305 -358 -365 0
-1093 -306 515 0
-1093 -306 -358 -366 0
-1093 -307 516 0
-1093 -307 -358 -367 0
-1094 369 0
-1094 508 0
-1094 518 0
-1094 300 0
-1094 -308 0
-1094 -462 0
-1094 -305 514 0
-1094 -305 -359 -365 0
-1094 -306 515 0
-1094 -306 -359 -366 0
-1094 -307 516 0
-1094 -307 -359 -367 0
-1095 369 0
-1095 509 0
-1095 518 0
-1095 301 0
-1095 -308 0
-1095 -462 0
-1095 -305 514 0
-1095 -305 -360 -365 0
-1095 -306 515 0
-1095 -306 -360 -366 0
-1095 -307 516 0
-1095 -307 -360 -367 0
-1096 369 0
-1096 510 0
-1096 518 0
-1096 302 0
-1096 -308 0
-1096 -462 0
-1096 -305 514 0
-1096 -305 -361 -365 0
-1096 -306 515 0
-1096 -306 -361 -366 0
-1096 -307 516 0
-1096 -307 -361 -367 0
-1097 369 0
-1097 511 0
-1097 518 0
-1097 303 0
-1097 -308 0
-1097 -462 0
-1097 -305 514 0
-1097 -305 -362 -365 0
-1097 -306 515 0
-1097 -306 -362 -366 0
-1097 -307 516 0
-1097 -307 -362 -367 0
-1098 369 0
-1098 512 0
-1098 518 0
-1098 304 0
-1098 -308 0
-1098 -462 0
-1098 -305 514 0
-1098 -305 -363 -365 0
-1098 -306 515 0
-1098 -306 -363 -366 0
-1098 -307 516 0
-1098 -307 -363 -367 0
-1099 369 0
-1099 507 0
-1099 518 0
-1099 393 0
-1099 -401 0
-1099 -552 0
-1099 -398 514 0
-1099 -398 -358 -365 0
-1099 -399 515 0
-1099 -399 -358 -366 0
-1099 -400 516 0
-1099 -400 -358 -367 0
-1100 369 0
-1100 508 0
-1100 518 0
-1100 393 394 0
-1100 -401 0
-1100 -552 0
-1100 -398 514 0
-1100 -398 -359 -365 0
-1100 -399 515 0
-1100 -399 -359 -366 0
-1100 -400 516 0
-1100 -400 -359 -367 0
-1101 369 0
-1101 509 0
-1101 518 0
-1101 394 395 0
-1101 -401 0
-1101 -552 0
-1101 -398 514 0
-1101 -398 -360 -365 0
-1101 -399 515 0
-1101 -399 -360 -366 0
-1101 -400 516 0
-1101 -400 -360 -367 0
-1102 369 0
-1102 510 0
-1102 518 0
-1102 395 396 0
-1102 -401 0
-1102 -552 0
-1102 -398 514 0
-1102 -398 -361 -365 0
-1102 -399 515 0
-1102 -399 -361 -366 0
-1102 -400 516 0
-1102 -400 -361 -367 0
-1103 369 0
-1103 511 0
-1103 518 0
-1103 396 397 0
-1103 -401 0
-1103 -552 0
-1103 -398 514 0
-1103 -398 -362 -365 0
-1103 -399 515 0
-1103 -399 -362 -366 0
-1103 -400 516 0
-1103 -400 -362 -367 0
-1104 369 0
-1104 512 0
-1104 518 0
-1104 397 0
-1104 -401 0
-1104 -552 0
-1104 -398 514 0
-1104 -398 -363 -365 0
-1104 -399 515 0
-1104 -399 -363 -366 0
-1104 -400 516 0
-1104 -400 -363 -367 0
-1105 369 0
-1105 507 0
-1105 518 0
-1105 423 0
-1105 -430 0
-1105 -581 0
-1105 -427 514 0
-1105 -427 -358 -365 0
-1105 -428 515 0
-1105 -428 -358 -366 0
-1105 -429 516 0
-1105 -429 -358 -367 0
-1106 369 0
-1106 508 0
-1106 518 0
-1106 423 424 0
-1106 -430 0
-1106 -581 0
-1106 -427 514 0
-1106 -427 -359 -365 0
-1106 -428 515 0
-1106 -428 -359 -366 0
-1106 -429 516 0
-1106 -429 -359 -367 0
-1107 369 0
-1107 509 0
-1107 518 0
-1107 423 424 425 0
-1107 -430 0
-1107 -581 0
-1107 -427 514 0
-1107 -427 -360 -365 0
-1107 -428 515 0
-1107 -428 -360 -366 0
-1107 -429 516 0
-1107 -429 -360 -367 0
-1108 369 0
-1108 510 0
-1108 518 0
-1108 424 425 426 0
-1108 -430 0
-1108 -581 0
-1108 -427 514 0
-1108 -427 -361 -365 0
-1108 -428 515 0
-1108 -428 -361 -366 0
-1108 -429 516 0
-1108 -429 -361 -367 0
-1109 369 0
-1109 511 0
-1109 518 0
-1109 425 426 0
-1109 -430 0
-1109 -581 0
-1109 -427 514 0
-1109 -427 -362 -365 0
-1109 -428 515 0
-1109 -428 -362 -366 0
-1109 -429 516 0
-1109 -429 -362 -367 0
-1110 369 0
-1110 512 0
-1110 518 0
-1110 426 0
-1110 -430 0
-1110 -581 0
-1110 -427 514 0
-1110 -427 -363 -365 0
-1110 -428 515 0
-1110 -428 -363 -366 0
-1110 -429 516 0
-1110 -429 -363 -367 0
-1111 403 0
-1111 542 0
-1111 552 0
-1111 547 0
-1111 -393 -398 0
-1112 403 0
-1112 543 0
-1112 552 0
-1112 547 0
-1112 -394 -398 0
-1113 403 0
-1113 544 0
-1113 552 0
-1113 547 0
-1113 -395 -398 0
-1114 403 0
-1114 545 0
-1114 552 0
-1114 547 0
-1114 -396 -398 0
-1115 403 0
-1115 546 0
-1115 552 0
-1115 547 0
-1115 -397 -398 0
-1116 403 0
-1116 542 0
-1116 552 0
-1116 299 300 0
-1116 -308 0
-1116 -462 0
-1116 -305 548 0
-1116 -305 -393 -399 0
-1116 -306 549 0
-1116 -306 -393 -400 0
-1116 -307 550 0
-1116 -307 -393 -401 0
-1117 403 0
-1117 543 0
-1117 552 0
-1117 300 301 0
-1117 -308 0
-1117 -462 0
-1117 -305 548 0
-1117 -305 -394 -399 0
-1117 -306 549 0
-1117 -306 -394 -400 0
-1117 -307 550 0
-1117 -307 -394 -401 0
-1118 403 0
-1118 544 0
-1118 552 0
-1118 301 302 0
-1118 -308 0
-1118 -462 0
-1118 -305 548 0
-1118 -305 -395 -399 0
-1118 -306 549 0
-1118 -306 -395 -400 0
-1118 -307 550 0
-1118 -307 -395 -401 0
-1119 403 0
-1119 545 0
-1119 552 0
-1119 302 303 0
-1119 -308 0
-1119 -462 0
-1119 -305 548 0
-1119 -305 -396 -399 0
-1119 -306 549 0
-1119 -306 -396 -400 0
-1119 -307 550 0
-1119 -307 -396 -401 0
-1120 403 0
-1120 546 0
-1120 552 0
-1120 303 304 0
-1120 -308 0
-1120 -462 0
-1120 -305 548 0
-1120 -305 -397 -399 0
-1120 -306 549 0
-1120 -306 -397 -400 0
-1120 -307 550 0
-1120 -307 -397 -401 0
-1121 403 0
-1121 542 0
-1121 552 0
-1121 358 359 0
-1121 -367 0
-1121 -518 0
-1121 -364 548 0
-1121 -364 -393 -399 0
-1121 -365 549 0
-1121 -365 -393 -400 0
-1121 -366 550 0
-1121 -366 -393 -401 0
-1122 403 0
-1122 543 0
-1122 552 0
-1122 359 360 0
-1122 -367 0
-1122 -518 0
-1122 -364 548 0
-1122 -364 -394 -399 0
-1122 -365 549 0
-1122 -365 -394 -400 0
-1122 -366 550 0
-1122 -366 -394 -401 0
-1123 403 0
-1123 544 0
-1123 552 0
-1123 360 361 0
-1123 -367 0
-1123 -518 0
-1123 -364 548 0
-1123 -364 -395 -399 0
-1123 -365 549 0
-1123 -365 -395 -400 0
-1123 -366 550 0
-1123 -366 -395 -401 0
-1124 403 0
-1124 545 0
-1124 552 0
-1124 361 362 0
-1124 -367 0
-1124 -518 0
-1124 -364 548 0
-1124 -364 -396 -399 0
-1124 -365 549 0
-1124 -365 -396 -400 0
-1124 -366 550 0
-1124 -366 -396 -401 0
-1125 403 0
-1125 546 0
-1125 552 0
-1125 362 363 0
-1125 -367 0
-1125 -518 0
-1125 -364 548 0
-1125 -364 -397 -399 0
-1125 -365 549 0
-1125 -365 -397 -400 0
-1125 -366 550 0
-1125 -366 -397 -401 0
-1126 403 0
-1126 542 0
-1126 552 0
-1126 423 424 0
-1126 -430 0
-1126 -581 0
-1126 -427 548 0
-1126 -427 -393 -399 0
-1126 -428 549 0
-1126 -428 -393 -400 0
-1126 -429 550 0
-1126 -429 -393 -401 0
-1127 403 0
-1127 543 0
-1127 552 0
-1127 423 424 425 0
-1127 -430 0
-1127 -581 0
-1127 -427 548 0
-1127 -427 -394 -399 0
-1127 -428 549 0
-1127 -428 -394 -400 0
-1127 -429 550 0
-1127 -429 -394 -401 0
-1128 403 0
-1128 544 0
-1128 552 0
-1128 423 424 425 426 0
-1128 -430 0
-1128 -581 0
-1128 -427 548 0
-1128 -427 -395 -399 0
-1128 -428 549 0
-1128 -428 -395 -400 0
-1128 -429 550 0
-1128 -429 -395 -401 0
-1129 403 0
-1129 545 0
-1129 552 0
-1129 424 425 426 0
-1129 -430 0
-1129 -581 0
-1129 -427 548 0
-1129 -427 -396 -399 0
-1129 -428 549 0
-1129 -428 -396 -400 0
-1129 -429 550 0
-1129 -429 -396 -401 0
-1130 403 0
-1130 546 0
-1130 552 0
-1130 425 426 0
-1130 -430 0
-1130 -581 0
-1130 -427 548 0
-1130 -427 -397 -399 0
-1130 -428 549 0
-1130 -428 -397 -400 0
-1130 -429 550 0
-1130 -429 -397 -401 0
-1131 432 0
-1131 572 0
-1131 581 0
-1131 576 0
-1131 -423 -427 0
-1132 432 0
-1132 573 0
-1132 581 0
-1132 576 0
-1132 -424 -427 0
-1133 432 0
-1133 574 0
-1133 581 0
-1133 576 0
-1133 -425 -427 0
-1134 432 0
-1134 575 0
-1134 581 0
-1134 576 0
-1134 -426 -427 0
-1135 432 0
-1135 572 0
-1135 581 0
-1135 299 300 301 0
-1135 -308 0
-1135 -462 0
-1135 -305 577 0
-1135 -305 -423 -428 0
-1135 -306 578 0
-1135 -306 -423 -429 0
-1135 -307 579 0
-1135 -307 -423 -430 0
-1136 432 0
-1136 573 0
-1136 581 0
-1136 300 301 302 0
-1136 -308 0
-1136 -462 0
-1136 -305 577 0
-1136 -305 -424 -428 0
-1136 -306 578 0
-1136 -306 -424 -429 0
-1136 -307 579 0
-1136 -307 -424 -430 0
-1137 432 0
-1137 574 0
-1137 581 0
-1137 301 302 303 0
-1137 -308 0
-1137 -462 0
-1137 -305 577 0
-1137 -305 -425 -428 0
-1137 -306 578 0
-1137 -306 -425 -429 0
-1137 -307 579 0
-1137 -307 -425 -430 0
-1138 432 0
-1138 575 0
-1138 581 0
-1138 302 303 304 0
-1138 -308 0
-1138 -462 0
-1138 -305 577 0
-1138 -305 -426 -428 0
-1138 -306 578 0
-1138 -306 -426 -429 0
-1138 -307 579 0
-1138 -307 -426 -430 0
-1139 432 0
-1139 572 0
-1139 581 0
-1139 358 359 360 0
-1139 -367 0
-1139 -518 0
-1139 -364 577 0
-1139 -364 -423 -428 0
-1139 -365 578 0
-1139 -365 -423 -429 0
-1139 -366 579 0
-1139 -366 -423 -430 0
-1140 432 0
-1140 573 0
-1140 581 0
-1140 359 360 361 0
-1140 -367 0
-1140 -518 0
-1140 -364 577 0
-1140 -364 -424 -428 0
-1140 -365 578 0
-1140 -365 -424 -429 0
-1140 -366 579 0
-1140 -366 -424 -430 0
-1141 432 0
-1141 574 0
-1141 581 0
-1141 360 361 362 0
-1141 -367 0
-1141 -518 0
-1141 -364 577 0
-1141 -364 -425 -428 0
-1141 -365 578 0
-1141 -365 -425 -429 0
-1141 -366 579 0
-1141 -366 -425 -430 0
-1142 432 0
-1142 575 0
-1142 581 0
-1142 361 362 363 0
-1142 -367 0
-1142 -518 0
-1142 -364 577 0
-1142 -364 -426 -428 0
-1142 -365 578 0
-1142 -365 -426 -429 0
-1142 -366 579 0
-1142 -366 -426 -430 0
-1143 432 0
-1143 572 0
-1143 581 0
-1143 393 394 395 0
-1143 -401 0
-1143 -552 0
-1143 -398 577 0
-1143 -398 -423 -428 0
-1143 -399 578 0
-1143 -399 -423 -429 0
-1143 -400 579 0
-1143 -400 -423 -430 0
-1144 432 0
-1144 573 0
-1144 581 0
-1144 393 394 395 396 0
-1144 -401 0
-1144 -552 0
-1144 -398 577 0
-1144 -398 -424 -428 0
-1144 -399 578 0
-1144 -399 -424 -429 0
-1144 -400 579 0
-1144 -400 -424 -430 0
-1145 432 0
-1145 574 0
-1145 581 0
-1145 394 395 396 397 0
-1145 -401 0
-1145 -552 0
-1145 -398 577 0
-1145 -398 -425 -428 0
-1145 -399 578 0
-1145 -399 -425 -429 0
-1145 -400 579 0
-1145 -400 -425 -430 0
-1146 432 0
-1146 575 0
-1146 581 0
-1146 395 396 397 0
-1146 -401 0
-1146 -552 0
-1146 -398 577 0
-1146 -398 -426 -428 0
-1146 -399 578 0
-1146 -399 -426 -429 0
-1146 -400 579 0
-1146 -400 -426 -430 0
1063 1064 1065 1066 1067 1068 1069 1070 1071 1072 1073 1074 1075 1076 1077 1078 1079 1080 1081 1082 1083 1084 1085 1086 1087 1088 1089 1090 1091 1092 1093 1094 1095 1096 1097 1098 1099 1100 1101 1102 1103 1104 1105 1106 1107 1108 1109 1110 1111 1112 1113 1114 1115 1116 1117 1118 1119 1120 1121 1122 1123 1124 1125 1126 1127 1128 1129 1130 1131 1132 1133 1134 1135 1136 1137 1138 1139 1140 1141 1142 1143 1144 1145 1146 0
-1063 -1064 0
-1063 -1065 0
-1063 -1066 0
-1063 -1067 0
-1063 -1068 0
-1063 -1069 0
-1063 -1070 0
-1063 -1071 0
-1063 -1072 0
-1063 -1073 0
-1063 -1074 0
-1063 -1075 0
-1063 -1076 0
-1063 -1077 0
-1063 -1078 0
-1063 -1079 0
-1063 -1080 0
-1063 -1081 0
-1063 -1082 0
-1063 -1083 0
-1063 -1084 0
-1063 -1085 0
-1063 -1086 0
-1063 -1087 0
-1063 -1088 0
-1063 -1089 0
-1063 -1090 0
-1063 -1091 0
-1063 -1092 0
-1063 -1093 0
-1063 -1094 0
-1063 -1095 0
-1063 -1096 0
-1063 -1097 0
-1063 -1098 0
-1063 -1099 0
-1063 -1100 0
-1063 -1101 0
-1063 -1102 0
-1063 -1103 0
-1063 -1104 0
-1063 -1105 0
-1063 -1106 0
-1063 -1107 0
-1063 -1108 0
-1063 -1109 0
-1063 -1110 0
-1063 -1111 0
-1063 -1112 0
-1063 -1113 0
-1063 -1114 0
-1063 -1115 0
-1063 -1116 0
-1063 -1117 0
-1063 -1118 0
-1063 -1119 0
-1063 -1120 0
-1063 -1121 0
-1063 -1122 0
-1063 -1123 0
-1063 -1124 0
-1063 -1125 0
-1063 -1126 0
-1063 -1127 0
-1063 -1128 0
-1063 -1129 0
-1063 -1130 0
-1063 -1131 0
-1063 -1132 0
-1063 -1133 0
-1063 -1134 0
-1063 -1135 0
-1063 -1136 0
-1063 -1137 0
-1063 -1138 0
-1063 -1139 0
-1063 -1140 0
-1063 -1141 0
-1063 -1142 0
-1063 -1143 0
-1063 -1144 0
-1063 -1145 0
-1063 -1146 0
-1064 -1065 0
-1064 -1066 0
-1064 -1067 0
-1064 -1068 0
-1064 -1069 0
-1064 -1070 0
-1064 -1071 0
-1064 -1072 0
-1064 -1073 0
-1064 -1074 0
-1064 -1075 0
-1064 -1076 0
-1064 -1077 0
-1064 -1078 0
-1064 -1079 0
-1064 -1080 0
-1064 -1081 0
-1064 -1082 0
-1064 -1083 0
-1064 -1084 0
-1064 -1085 0
-1064 -1086 0
-1064 -1087 0
-1064 -1088 0
-1064 -1089 0
-1064 -1090 0
-1064 -1091 0
-1064 -1092 0
-1064 -1093 0
-1064 -1094 0
-1064 -1095 0
-1064 -1096 0
-1064 -1097 0
-1064 -1098 0
-1064 -1099 0
-1064 -1100 0
-1064 -1101 0
-1064 -1102 0
-1064 -1103 0
-1064 -1104 0
-1064 -1105 0
-1064 -1106 0
-1064 -1107 0
-1064 -1108 0
-1064 -1109 0
-1064 -1110 0
-1064 -1111 0
-1064 -1112 0
-1064 -1113 0
-1064 -1114 0
-1064 -1115 0
-1064 -1116 0
-1064 -1117 0
-1064 -1118 0
-1064 -1119 0
-1064 -1120 0
-1064 -1121 0
-1064 -1122 0
-1064 -1123 0
-1064 -1124 0
-1064 -1125 0
-1064 -1126 0
-1064 -1127 0
-1064 -1128 0
-1064 -1129 0
-1064 -1130 0
-1064 -1131 0
-1064 -1132 0
-1064 -1133 0
-1064 -1134 0
-1064 -1135 0
-1064 -1136 0
-1064 -1137 0
-1064 -1138 0
-1064 -1139 0
-1064 -1140 0
-1064 -1141 0
-1064 -1142 0
-1064 -1143 0
-1064 -1144 0
-1064 -1145 0
-1064 -1146 0
-1065 -1066 0
-1065 -1067 0
-1065 -1068 0
-1065 -1069 0
-1065 -1070 0
-1065 -1071 0
-1065 -1072 0
-1065 -1073 0
-1065 -1074 0
-1065 -1075 0
-1065 -1076 0
-1065 -1077 0
-1065 -1078 0
-1065 -1079 0
-1065 -1080 0
-1065 -1081 0
-1065 -1082 0
-1065 -1083 0
-1065 -1084 0
-1065 -1085 0
-1065 -1086 0
-1065 -1087 0
-1065 -1088 0
-1065 -1089 0
-1065 -1090 0
-1065 -1091 0
-1065 -1092 0
-1065 -1093 0
-1065 -1094 0
-1065 -1095 0
-1065 -1096 0
-1065 -1097 0
-1065 -1098 0
-1065 -1099 0
-1065 -1100 0
-1065 -1101 0
-1065 -1102 0
-1065 -1103 0
-1065 -1104 0
-1065 -1105 0
-1065 -1106 0
-1065 -1107 0
-1065 -1108 0
-1065 -1109 0
-1065 -1110 0
-1065 -1111 0
-1065 -1112 0
-1065 -1113 0
-1065 -1114 0
-1065 -1115 0
-1065 -1116 0
-1065 -1117 0
-1065 -1118 0
-1065 -1119 0
-1065 -1120 0
-1065 -1121 0
-1065 -1122 0
-1065 -1123 0
-1065 -1124 0
-1065 -1125 0
-1065 -1126 0
-1065 -1127 0
-1065 -1128 0
-1065 -1129 0
-1065 -1130 0
-1065 -1131 0
-1065 -1132 0
-1065 -1133 0
-1065 -1134 0
-1065 -1135 0
-1065 -1136 0
-1065 -1137 0
-1065 -1138 0
-1065 -1139 0
-1065 -1140 0
-1065 -1141 0
-1065 -1142 0
-1065 -1143 0
-1065 -1144 0
-1065 -1145 0
-1065 -1146 0
-1066 -1067 0
-1066 -1068 0
-1066 -1069 0
-1066 -1070 0
-1066 -1071 0
-1066 -1072 0
-1066 -1073 0
-1066 -1074 0
-1066 -1075 0
-1066 -1076 0
-1066 -1077 0
-1066 -1078 0
-1066 -1079 0
-1066 -1080 0
-1066 -1081 0
-1066 -1082 0
-1066 -1083 0
-1066 -1084 0
-1066 -1085 0
-1066 -1086 0
-1066 -1087 0
-1066 -1088 0
-1066 -1089 0
-1066 -1090 0
-1066 -1091 0
-1066 -1092 0
-1066 -1093 0
-1066 -1094 0
-1066 -1095 0
-1066 -1096 0
-1066 -1097 0
-1066 -1098 0
-1066 -1099 0
-1066 -1100 0
-1066 -1101 0
-1066 -1102 0
-1066 -1103 0
-1066 -1104 0
-1066 -1105 0
-1066 -1106 0
-1066 -1107 0
-1066 -1108 0
-1066 -1109 0
-1066 -1110 0
-1066 -1111 0
-1066 -1112 0
-1066 -1113 0
-1066 -1114 0
-1066 -1115 0
-1066 -1116 0
-1066 -1117 0
-1066 -1118 0
-1066 -1119 0
-1066 -1120 0
-1066 -1121 0
-1066 -1122 0
-1066 -1123 0
-1066 -1124 0
-1066 -1125 0
-1066 -1126 0
-1066 -1127 0
-1066 -1128 0
-1066 -1129 0
-1066 -1130 0
-1066 -1131 0
-1066 -1132 0
-1066 -1133 0
-1066 -1134 0
-1066 -1135 0
-1066 -1136 0
-1066 -1137 0
-1066 -1138 0
-1066 -1139 0
-1066 -1140 0
-1066 -1141 0
-1066 -1142 0
-1066 -1143 0
-1066 -1144 0
-1066 -1145 0
-1066 -1146 0
-1067 -1068 0
-1067 -1069 0
-1067 -1070 0
-1067 -1071 0
-1067 -1072 0
-1067 -1073 0
-1067 -1074 0
-1067 -1075 0
-1067 -1076 0
-1067 -1077 0
-1067 -1078 0
-1067 -1079 0
-1067 -1080 0
-1067 -1081 0
-1067 -1082 0
-1067 -1083 0
-1067 -1084 0
-1067 -1085 0
-1067 -1086 0
-1067 -1087 0
-1067 -1088 0
-1067 -1089 0
-1067 -1090 0
-1067 -1091 0
-1067 -1092 0
-1067 -1093 0
-1067 -1094 0
-1067 -1095 0
-1067 -1096 0
-1067 -1097 0
-1067 -1098 0
-1067 -1099 0
-1067 -1100 0
-1067 -1101 0
-1067 -1102 0
-1067 -1103 0
-1067 -1104 0
-1067 -1105 0
-1067 -1106 0
-1067 -1107 0
-1067 -1108 0
-1067 -1109 0
-1067 -1110 0
-1067 -1111 0
-1067 -1112 0
-1067 -1113 0
-1067 -1114 0
-1067 -1115 0
-1067 -1116 0
-1067 -1117 0
-1067 -1118 0
-1067 -1119 0
-1067 -1120 0
-1067 -1121 0
-1067 -1122 0
-1067 -1123 0
-1067 -1124 0
-1067 -1125 0
-1067 -1126 0
-1067 -1127 0
-1067 -1128 0
-1067 -1129 0
-1067 -1130 0
-1067 -1131 0
-1067 -1132 0
-1067 -1133 0
-1067 -1134 0
-1067 -1135 0
-1067 -1136 0
-1067 -1137 0
-1067 -1138 0
-1067 -1139 0
-1067 -1140 0
-1067 -1141 0
-1067 -1142 0
-1067 -1143 0
-1067 -1144 0
-1067 -1145 0
-1067 -1146 0
-1068 -1069 0
-1068 -1070 0
-1068 -1071 0
-1068 -1072 0
-1068 -1073 0
-1068 -1074 0
-1068 -1075 0
-1068 -1076 0
-1068 -1077 0
-1068 -1078 0
-1068 -1079 0
-1068 -1080 0
-1068 -1081 0
-1068 -1082 0
-1068 -1083 0
-1068 -1084 0
-1068 -1085 0
-1068 -1086 0
-1068 -1087 0
-1068 -1088 0
-1068 -1089 0
-1068 -1090 0
-1068 -1091 0
-1068 -1092 0
-1068 -1093 0
-1068 -1094 0
-1068 -1095 0
-1068 -1096 0
-1068 -1097 0
-1068 -1098 0
-1068 -1099 0
-1068 -1100 0
-1068 -1101 0
-1068 -1102 0
-1068 -1103 0
-1068 -1104 0
-1068 -1105 0
-1068 -1106 0
-1068 -1107 0
-1068 -1108 0
-1068 -1109 0
-1068 -1110 0
-1068 -1111 0
-1068 -1112 0
-1068 -1113 0
-1068 -1114 0
-1068 -1115 0
-1068 -1116 0
-1068 -1117 0
-1068 -1118 0
-1068 -1119 0
-1068 -1120 0
-1068 -1121 0
-1068 -1122 0
-1068 -1123 0
-1068 -1124 0
-1068 -1125 0
-1068 -1126 0
-1068 -1127 0
-1068 -1128 0
-1068 -1129 0
-1068 -1130 0
-1068 -1131 0
-1068 -1132 0
-1068 -1133 0
-1068 -1134 0
-1068 -1135 0
-1068 -1136 0
-1068 -1137 0
-1068 -1138 0
-1068 -1139 0
-1068 -1140 0
-1068 -1141 0
-1068 -1142 0
-1068 -1143 0
-1068 -1144 0
-1068 -1145 0
-1068 -1146 0
-1069 -1070 0
-1069 -1071 0
-1069 -1072 0
-1069 -1073 0
-1069 -1074 0
-1069 -1075 0
-1069 -1076 0
-1069 -1077 0
-1069 -1078 0
-1069 -1079 0
-1069 -1080 0
-1069 -1081 0
-1069 -1082 0
-1069 -1083 0
-1069 -1084 0
-1069 -1085 0
-1069 -1086 0
-1069 -1087 0
-1069 -1088 0
-1069 -1089 0
-1069 -1090 0
-1069 -1091 0
-1069 -1092 0
-1069 -1093 0
-1069 -1094 0
-1069 -1095 0
-1069 -1096 0
-1069 -1097 0
-1069 -1098 0
-1069 -1099 0
-1069 -1100 0
-1069 -1101 0
-1069 -1102 0
-1069 -1103 0
-1069 -1104 0
-1069 -1105 0
-1069 -1106 0
-1069 -1107 0
-1069 -1108 0
-1069 -1109 0
-1069 -1110 0
-1069 -1111 0
-1069 -1112 0
-1069 -1113 0
-1069 -1114 0
-1069 -1115 0
-1069 -1116 0
-1069 -1117 0
-1069 -1118 0
-1069 -1119 0
-1069 -1120 0
-1069 -1121 0
-1069 -1122 0
-1069 -1123 0
-1069 -1124 0
-1069 -1125 0
-1069 -1126 0
-1069 -1127 0
-1069 -1128 0
-1069 -1129 0
-1069 -1130 0
-1069 -1131 0
-1069 -1132 0
-1069 -1133 0
-1069 -1134 0
-1069 -1135 0
-1069 -1136 0
-1069 -1137 0
-1069 -1138 0
-1069 -1139 0
-1069 -1140 0
-1069 -1141 0
-1069 -1142 0
-1069 -1143 0
-1069 -1144 0
-1069 -1145 0
-1069 -1146 0
-1070 -1071 0
-1070 -1072 0
-1070 -1073 0
-1070 -1074 0
-1070 -1075 0
-1070 -1076 0
-1070 -1077 0
-1070 -1078 0
-1070 -1079 0
-1070 -1080 0
-1070 -1081 0
-1070 -1082 0
-1070 -1083 0
-1070 -1084 0
-1070 -1085 0
-1070 -1086 0
-1070 -1087 0
-1070 -1088 0
-1070 -1089 0
-1070 -1090 0
-1070 -1091 0
-1070 -1092 0
-1070 -1093 0
-1070 -1094 0
-1070 -1095 0
-1070 -1096 0
-1070 -1097 0
-1070 -1098 0
-1070 -1099 0
-1070 -1100 0
-1070 -1101 0
-1070 -1102 0
-1070 -1103 0
-1070 -1104 0
-1070 -1105 0
-1070 -1106 0
-1070 -1107 0
-1070 -1108 0
-1070 -1109 0
-1070 -1110 0
-1070 -1111 0
-1070 -1112 0
-1070 -1113 0
-1070 -1114 0
-1070 -1115 0
-1070 -1116 0
-1070 -1117 0
-1070 -1118 0
-1070 -1119 0
-1070 -1120 0
-1070 -1121 0
-1070 -1122 0
-1070 -1123 0
-1070 -1124 0
-1070 -1125 0
-1070 -1126 0
-1070 -1127 0
-1070 -1128 0
-1070 -1129 0
-1070 -1130 0
-1070 -1131 0
-1070 -1132 0
-1070 -1133 0
-1070 -1134 0
-1070 -1135 0
-1070 -1136 0
-1070 -1137 0
-1070 -1138 0
-1070 -1139 0
-1070 -1140 0
-1070 -1141 0
-1070 -1142 0
-1070 -1143 0
-1070 -1144 0
-1070 -1145 0
-1070 -1146 0
-1071 -1072 0
-1071 -1073 0
-1071 -1074 0
-1071 -1075 0
-1071 -1076 0
-1071 -1077 0
-1071 -1078 0
-1071 -1079 0
-1071 -1080 0
-1071 -1081 0
-1071 -1082 0
-1071 -1083 0
-1071 -1084 0
-1071 -1085 0
-1071 -1086 0
-1071 -1087 0
-1071 -1088 0
-1071 -1089 0
-1071 -1090 0
-1071 -1091 0
-1071 -1092 0
-1071 -1093 0
-1071 -1094 0
-1071 -1095 0
-1071 -1096 0
-1071 -1097 0
-1071 -1098 0
-1071 -1099 0
-1071 -1100 0
-1071 -1101 0
-1071 -1102 0
-1071 -1103 0
-1071 -1104 0
-1071 -1105 0
-1071 -1106 0
-1071 -1107 0
-1071 -1108 0
-1071 -1109 0
-1071 -1110 0
-1071 -1111 0
-1071 -1112 0
-1071 -1113 0
-1071 -1114 0
-1071 -1115 0
-1071 -1116 0
-1071 -1117 0
-1071 -1118 0
-1071 -1119 0
-1071 -1120 0
-1071 -1121 0
-1071 -1122 0
-1071 -1123 0
-1071 -1124 0
-1071 -1125 0
-1071 -1126 0
-1071 -1127 0
-1071 -1128 0
-1071 -1129 0
-1071 -1130 0
-1071 -1131 0
-1071 -1132 0
-1071 -1133 0
-1071 -1134 0
-1071 -1135 0
-1071 -1136 0
-1071 -1137 0
-1071 -1138 0
-1071 -1139 0
-1071 -1140 0
-1071 -1141 0
-1071 -1142 0
-1071 -1143 0
-1071 -1144 0
-1071 -1145 0
-1071 -1146 0
-1072 -1073 0
-1072 -1074 0
-1072 -1075 0
-1072 -1076 0
-1072 -1077 0
-1072 -1078 0
-1072 -1079 0
-1072 -1080 0
-1072 -1081 0
-1072 -1082 0
-1072 -1083 0
-1072 -1084 0
-1072 -1085 0
-1072 -1086 0
-1072 -1087 0
-1072 -1088 0
-1072 -1089 0
-1072 -1090 0
-1072 -1091 0
-1072 -1092 0
-1072 -1093 0
-1072 -1094 0
-1072 -1095 0
-1072 -1096 0
-1072 -1097 0
-1072 -1098 0
-1072 -1099 0
-1072 -1100 0
-1072 -1101 0
-1072 -1102 0
-1072 -1103 0
-1072 -1104 0
-1072 -1105 0
-1072 -1106 0
-1072 -1107 0
-1072 -1108 0
-1072 -1109 0
-1072 -1110 0
-1072 -1111 0
-1072 -1112 0
-1072 -1113 0
-1072 -1114 0
-1072 -1115 0
-1072 -1116 0
-1072 -1117 0
-1072 -1118 0
-1072 -1119 0
-1072 -1120 0
-1072 -1121 0
-1072 -1122 0
-1072 -1123 0
-1072 -1124 0
-1072 -1125 0
-1072 -1126 0
-1072 -1127 0
-1072 -1128 0
-1072 -1129 0
-1072 -1130 0
-1072 -1131 0
-1072 -1132 0
-1072 -1133 0
-1072 -1134 0
-1072 -1135 0
-1072 -1136 0
-1072 -1137 0
-1072 -1138 0
-1072 -1139 0
-1072 -1140 0
-1072 -1141 0
-1072 -1142 0
-1072 -1143 0
-1072 -1144 0
-1072 -1145 0
-1072 -1146 0
-1073 -1074 0
-1073 -1075 0
-1073 -1076 0
-1073 -1077 0
-1073 -1078 0
-1073 -1079 0
-1073 -1080 0
-1073 -1081 0
-1073 -1082 0
-1073 -1083 0
-1073 -1084 0
-1073 -1085 0
-1073 -1086 0
-1073 -1087 0
-1073 -1088 0
-1073 -1089 0
-1073 -1090 0
-1073 -1091 0
-1073 -1092 0
-1073 -1093 0
-1073 -1094 0
-1073 -1095 0
-1073 -1096 0
-1073 -1097 0
-1073 -1098 0
-1073 -1099 0
-1073 -1100 0
-1073 -1101 0
-1073 -1102 0
-1073 -1103 0
-1073 -1104 0
-1073 -1105 0
-1073 -1106 0
-1073 -1107 0
-1073 -1108 0
-1073 -1109 0
-1073 -1110 0
-1073 -1111 0
-1073 -1112 0
-1073 -1113 0
-1073 -1114 0
-1073 -1115 0
-1073 -1116 0
-1073 -1117 0
-1073 -1118 0
-1073 -1119 0
-1073 -1120 0
-1073 -1121 0
-1073 -1122 0
-1073 -1123 0
-1073 -1124 0
-1073 -1125 0
-1073 -1126 0
-1073 -1127 0
-1073 -1128 0
-1073 -1129 0
-1073 -1130 0
-1073 -1131 0
-1073 -1132 0
-1073 -1133 0
-1073 -1134 0
-1073 -1135 0
-1073 -1136 0
-1073 -1137 0
-1073 -1138 0
-1073 -1139 0
-1073 -1140 0
-1073 -1141 0
-1073 -1142 0
-1073 -1143 0
-1073 -1144 0
-1073 -1145 0
-1073 -1146 0
-1074 -1075 0
-1074 -1076 0
-1074 -1077 0
-1074 -1078 0
-1074 -1079 0
-1074 -1080 0
-1074 -1081 0
-1074 -1082 0
-1074 -1083 0
-1074 -1084 0
-1074 -1085 0
-1074 -1086 0
-1074 -1087 0
-1074 -1088 0
-1074 -1089 0
-1074 -1090 0
-1074 -1091 0
-1074 -1092 0
-1074 -1093 0
-1074 -1094 0
-1074 -1095 0
-1074 -1096 0
-1074 -1097 0
-1074 -1098 0
-1074 -1099 0
-1074 -1100 0
-1074 -1101 0
-1074 -1102 0
-1074 -1103 0
-1074 -1104 0
-1074 -1105 0
-1074 -1106 0
-1074 -1107 0
-1074 -1108 0
-1074 -1109 0
-1074 -1110 0
-1074 -1111 0
-1074 -1112 0
-1074 -1113 0
-1074 -1114 0
-1074 -1115 0
-1074 -1116 0
-1074 -1117 0
-1074 -1118 0
-1074 -1119 0
-1074 -1120 0
-1074 -1121 0
-1074 -1122 0
-1074 -1123 0
-1074 -1124 0
-1074 -1125 0
-1074 -1126 0
-1074 -1127 0
-1074 -1128 0
-1074 -1129 0
-1074 -1130 0
-1074 -1131 0
-1074 -1132 0
-1074 -1133 0
-1074 -1134 0
-1074 -1135 0
-1074 -1136 0
-1074 -1137 0
-1074 -1138 0
-1074 -1139 0
-1074 -1140 0
-1074 -1141 0
-1074 -1142 0
-1074 -1143 0
-1074 -1144 0
-1074 -1145 0
-1074 -1146 0
-1075 -1076 0
-1075 -1077 0
-1075 -1078 0
-1075 -1079 0
-1075 -1080 0
-1075 -1081 0
-1075 -1082 0
-1075 -1083 0
-1075 -1084 0
-1075 -1085 0
-1075 -1086 0
-1075 -1087 0
-1075 -1088 0
-1075 -1089 0
-1075 -1090 0
-1075 -1091 0
-1075 -1092 0
-1075 -1093 0
-1075 -1094 0
-1075 -1095 0
-1075 -1096 0
-1075 -1097 0
-1075 -1098 0
-1075 -1099 0
-1075 -1100 0
-1075 -1101 0
-1075 -1102 0
-1075 -1103 0
-1075 -1104 0
-1075 -1105 0
-1075 -1106 0
-1075 -1107 0
-1075 -1108 0
-1075 -1109 0
-1075 -1110 0
-1075 -1111 0
-1075 -1112 0
-1075 -1113 0
-1075 -1114 0
-1075 -1115 0
-1075 -1116 0
-1075 -1117 0
-1075 -1118 0
-1075 -1119 0
-1075 -1120 0
-1075 -1121 0
-1075 -1122 0
-1075 -1123 0
-1075 -1124 0
-1075 -1125 0
-1075 -1126 0
-1075 -1127 0
-1075 -1128 0
-1075 -1129 0
-1075 -1130 0
-1075 -1131 0
-1075 -1132 0
-1075 -1133 0
-1075 -1134 0
-1075 -1135 0
-1075 -1136 0
-1075 -1137 0
-1075 -1138 0
-1075 -1139 0
-1075 -1140 0
-1075 -1141 0
-1075 -1142 0
-1075 -1143 0
-1075 -1144 0
-1075 -1145 0
-1075 -1146 0
-1076 -1077 0
-1076 -1078 0
-1076 -1079 0
-1076 -1080 0
-1076 -1081 0
-1076 -1082 0
-1076 -1083 0
-1076 -1084 0
-1076 -1085 0
-1076 -1086 0
-1076 -1087 0
-1076 -1088 0
-1076 -1089 0
-1076 -1090 0
-1076 -1091 0
-1076 -1092 0
-1076 -1093 0
-1076 -1094 0
-1076 -1095 0
-1076 -1096 0
-1076 -1097 0
-1076 -1098 0
-1076 -1099 0
-1076 -1100 0
-1076 -1101 0
-1076 -1102 0
-1076 -1103 0
-1076 -1104 0
-1076 -1105 0
-1076 -1106 0
-1076 -1107 0
-1076 -1108 0
-1076 -1109 0
-1076 -1110 0
-1076 -1111 0
-1076 -1112 0
-1076 -1113 0
-1076 -1114 0
-1076 -1115 0
-1076 -1116 0
-1076 -1117 0
-1076 -1118 0
-1076 -1119 0
-1076 -1120 0
-1076 -1121 0
-1076 -1122 0
-1076 -1123 0
-1076 -1124 0
-1076 -1125 0
-1076 -1126 0
-1076 -1127 0
-1076 -1128 0
-1076 -1129 0
-1076 -1130 0
-1076 -1131 0
-1076 -1132 0
-1076 -1133 0
-1076 -1134 0
-1076 -1135 0
-1076 -1136 0
-1076 -1137 0
-1076 -1138 0
-1076 -1139 0
-1076 -1140 0
-1076 -1141 0
-1076 -1142 0
-1076 -1143 0
-1076 -1144 0
-1076 -1145 0
-1076 -1146 0
-1077 -1078 0
-1077 -1079 0
-1077 -1080 0
-1077 -1081 0
-1077 -1082 0
-1077 -1083 0
-1077 -1084 0
-1077 -1085 0
-1077 -1086 0
-1077 -1087 0
-1077 -1088 0
-1077 -1089 0
-1077 -1090 0
-1077 -1091 0
-1077 -1092 0
-1077 -1093 0
-1077 -1094 0
-1077 -1095 0
-1077 -1096 0
-1077 -1097 0
-1077 -1098 0
-1077 -1099 0
-1077 -1100 0
-1077 -1101 0
-1077 -1102 0
-1077 -1103 0
-1077 -1104 0
-1077 -1105 0
-1077 -1106 0
-1077 -1107 0
-1077 -1108 0
-1077 -1109 0
-1077 -1110 0
-1077 -1111 0
-1077 -1112 0
-1077 -1113 0
-1077 -1114 0
-1077 -1115 0
-1077 -1116 0
-1077 -1117 0
-1077 -1118 0
-1077 -1119 0
-1077 -1120 0
-1077 -1121 0
-1077 -1122 0
-1077 -1123 0
-1077 -1124 0
-1077 -1125 0
-1077 -1126 0
-1077 -1127 0
-1077 -1128 0
-1077 -1129 0
-1077 -1130 0
-1077 -1131 0
-1077 -1132 0
-1077 -1133 0
-1077 -1134 0
-1077 -1135 0
-1077 -1136 0
-1077 -1137 0
-1077 -1138 0
-1077 -1139 0
-1077 -1140 0
-1077 -1141 0
-1077 -1142 0
-1077 -1143 0
-1077 -1144 0
-1077 -1145 0
-1077 -1146 0
-1078 -1079 0
-1078 -1080 0
-1078 -1081 0
-1078 -1082 0
-1078 -1083 0
-1078 -1084 0
-1078 -1085 0
-1078 -1086 0
-1078 -1087 0
-1078 -1088 0
-1078 -1089 0
-1078 -1090 0
-1078 -1091 0
-1078 -1092 0
-1078 -1093 0
-1078 -1094 0
-1078 -1095 0
-1078 -1096 0
-1078 -1097 0
-1078 -1098 0
-1078 -1099 0
-1078 -1100 0
-1078 -1101 0
-1078 -1102 0
-1078 -1103 0
-1078 -1104 0
-1078 -1105 0
-1078 -1106 0
-1078 -1107 0
-1078 -1108 0
-1078 -1109 0
-1078 -1110 0
-1078 -1111 0
-1078 -1112 0
-1078 -1113 0
-1078 -1114 0
-1078 -1115 0
-1078 -1116 0
-1078 -1117 0
-1078 -1118 0
-1078 -1119 0
-1078 -1120 0
-1078 -1121 0
-1078 -1122 0
-1078 -1123 0
-1078 -1124 0
-1078 -1125 0
-1078 -1126 0
-1078 -1127 0
-1078 -1128 0
-1078 -1129 0
-1078 -1130 0
-1078 -1131 0
-1078 -1132 0
-1078 -1133 0
-1078 -1134 0
-1078 -1135 0
-1078 -1136 0
-1078 -1137 0
-1078 -1138 0
-1078 -1139 0
-1078 -1140 0
-1078 -1141 0
-1078 -1142 0
-1078 -1143 0
-1078 -1144 0
-1078 -1145 0
-1078 -1146 0
-1079 -1080 0
-1079 -1081 0
-1079 -1082 0
-1079 -1083 0
-1079 -1084 0
-1079 -1085 0
-1079 -1086 0
-1079 -1087 0
-1079 -1088 0
-1079 -1089 0
-1079 -1090 0
-1079 -1091 0
-1079 -1092 0
-1079 -1093 0
-1079 -1094 0
-1079 -1095 0
-1079 -1096 0
-1079 -1097 0
-1079 -1098 0
-1079 -1099 0
-1079 -1100 0
-1079 -1101 0
-1079 -1102 0
-1079 -1103 0
-1079 -1104 0
-1079 -1105 0
-1079 -1106 0
-1079 -1107 0
-1079 -1108 0
-1079 -1109 0
-1079 -1110 0
-1079 -1111 0
-1079 -1112 0
-1079 -1113 0
-1079 -1114 0
-1079 -1115 0
-1079 -1116 0
-1079 -1117 0
-1079 -1118 0
-1079 -1119 0
-1079 -1120 0
-1079 -1121 0
-1079 -1122 0
-1079 -1123 0
-1079 -1124 0
-1079 -1125 0
-1079 -1126 0
-1079 -1127 0
-1079 -1128 0
-1079 -1129 0
-1079 -1130 0
-1079 -1131 0
-1079 -1132 0
-1079 -1133 0
-1079 -1134 0
-1079 -1135 0
-1079 -1136 0
-1079 -1137 0
-1079 -1138 0
-1079 -1139 0
-1079 -1140 0
-1079 -1141 0
-1079 -1142 0
-1079 -1143 0
-1079 -1144 0
-1079 -1145 0
-1079 -1146 0
-1080 -1081 0
-1080 -1082 0
-1080 -1083 0
-1080 -1084 0
-1080 -1085 0
-1080 -1086 0
-1080 -1087 0
-1080 -1088 0
-1080 -1089 0
-1080 -1090 0
-1080 -1091 0
-1080 -1092 0
-1080 -1093 0
-1080 -1094 0
-1080 -1095 0
-1080 -1096 0
-1080 -1097 0
-1080 -1098 0
-1080 -1099 0
-1080 -1100 0
-1080 -1101 0
-1080 -1102 0
-1080 -1103 0
-1080 -1104 0
-1080 -1105 0
-1080 -1106 0
-1080 -1107 0
-1080 -1108 0
-1080 -1109 0
-1080 -1110 0
-1080 -1111 0
-1080 -1112 0
-1080 -1113 0
-1080 -1114 0
-1080 -1115 0
-1080 -1116 0
-1080 -1117 0
-1080 -1118 0
-1080 -1119 0
-1080 -1120 0
-1080 -1121 0
-1080 -1122 0
-1080 -1123 0
-1080 -1124 0
-1080 -1125 0
-1080 -1126 0
-1080 -1127 0
-1080 -1128 0
-1080 -1129 0
-1080 -1130 0
-1080 -1131 0
-1080 -1132 0
-1080 -1133 0
-1080 -1134 0
-1080 -1135 0
-1080 -1136 0
-1080 -1137 0
-1080 -1138 0
-1080 -1139 0
-1080 -1140 0
-1080 -1141 0
-1080 -1142 0
-1080 -1143 0
-1080 -1144 0
-1080 -1145 0
-1080 -1146 0
-1081 -1082 0
-1081 -1083 0
-1081 -1084 0
-1081 -1085 0
-1081 -1086 0
-1081 -1087 0
-1081 -1088 0
-1081 -1089 0
-1081 -1090 0
-1081 -1091 0
-1081 -1092 0
-1081 -1093 0
-1081 -1094 0
-1081 -1095 0
-1081 -1096 0
-1081 -1097 0
-1081 -1098 0
-1081 -1099 0
-1081 -1100 0
-1081 -1101 0
-1081 -1102 0
-1081 -1103 0
-1081 -1104 0
-1081 -1105 0
-1081 -1106 0
-1081 -1107 0
-1081 -1108 0
-1081 -1109 0
-1081 -1110 0
-1081 -1111 0
-1081 -1112 0
-1081 -1113 0
-1081 -1114 0
-1081 -1115 0
-1081 -1116 0
-1081 -1117 0
-1081 -1118 0
-1081 -1119 0
-1081 -1120 0
-1081 -1121 0
-1081 -1122 0
-1081 -1123 0
-1081 -1124 0
-1081 -1125 0
-1081 -1126 0
-1081 -1127 0
-1081 -1128 0
-1081 -1129 0
-1081 -1130 0
-1081 -1131 0
-1081 -1132 0
-1081 -1133 0
-1081 -1134 0
-1081 -1135 0
-1081 -1136 0
-1081 -1137 0
-1081 -1138 0
-1081 -1139 0
-1081 -1140 0
-1081 -1141 0
-1081 -1142 0
-1081 -1143 0
-1081 -1144 0
-1081 -1145 0
-1081 -1146 0
-1082 -1083 0
-1082 -1084 0
-1082 -1085 0
-1082 -1086 0
-1082 -1087 0
-1082 -1088 0
-1082 -1089 0
-1082 -1090 0
-1082 -1091 0
-1082 -1092 0
-1082 -1093 0
-1082 -1094 0
-1082 -1095 0
-1082 -1096 0
-1082 -1097 0
-1082 -1098 0
-1082 -1099 0
-1082 -1100 0
-1082 -1101 0
-1082 -1102 0
-1082 -1103 0
-1082 -1104 0
-1082 -1105 0
-1082 -1106 0
-1082 -1107 0
-1082 -1108 0
-1082 -1109 0
-1082 -1110 0
-1082 -1111 0
-1082 -1112 0
-1082 -1113 0
-1082 -1114 0
-1082 -1115 0
-1082 -1116 0
-1082 -1117 0
-1082 -1118 0
-1082 -1119 0
-1082 -1120 0
-1082 -1121 0
-1082 -1122 0
-1082 -1123 0
-1082 -1124 0
-1082 -1125 0
-1082 -1126 0
-1082 -1127 0
-1082 -1128 0
-1082 -1129 0
-1082 -1130 0
-1082 -1131 0
-1082 -1132 0
-1082 -1133 0
-1082 -1134 0
-1082 -1135 0
-1082 -1136 0
-1082 -1137 0
-1082 -1138 0
-1082 -1139 0
-1082 -1140 0
-1082 -1141 0
-1082 -1142 0
-1082 -1143 0
-1082 -1144 0
-1082 -1145 0
-1082 -1146 0
-1083 -1084 0
-1083 -1085 0
-1083 -1086 0
-1083 -1087 0
-1083 -1088 0
-1083 -1089 0
-1083 -1090 0
-1083 -1091 0
-1083 -1092 0
-1083 -1093 0
-1083 -1094 0
-1083 -1095 0
-1083 -1096 0
-1083 -1097 0
-1083 -1098 0
-1083 -1099 0
-1083 -1100 0
-1083 -1101 0
-1083 -1102 0
-1083 -1103 0
-1083 -1104 0
-1083 -1105 0
-1083 -1106 0
-1083 -1107 0
-1083 -1108 0
-1083 -1109 0
-1083 -1110 0
-1083 -1111 0
-1083 -1112 0
-1083 -1113 0
-1083 -1114 0
-1083 -1115 0
-1083 -1116 0
-1083 -1117 0
-1083 -1118 0
-1083 -1119 0
-1083 -1120 0
-1083 -1121 0
-1083 -1122 0
-1083 -1123 0
-1083 -1124 0
-1083 -1125 0
-1083 -1126 0
-1083 -1127 0
-1083 -1128 0
-1083 -1129 0
-1083 -1130 0
-1083 -1131 0
-1083 -1132 0
-1083 -1133 0
-1083 -1134 0
-1083 -1135 0
-1083 -1136 0
-1083 -1137 0
-1083 -1138 0
-1083 -1139 0
-1083 -1140 0
-1083 -1141 0
-1083 -1142 0
-1083 -1143 0
-1083 -1144 0
-1083 -1145 0
-1083 -1146 0
-1084 -1085 0
-1084 -1086 0
-1084 -1087 0
-1084 -1088 0
-1084 -1089 0
-1084 -1090 0
-1084 -1091 0
-1084 -1092 0
-1084 -1093 0
-1084 -1094 0
-1084 -1095 0
-1084 -1096 0
-1084 -1097 0
-1084 -1098 0
-1084 -1099 0
-1084 -1100 0
-1084 -1101 0
-1084 -1102 0
-1084 -1103 0
-1084 -1104 0
-1084 -1105 0
-1084 -1106 0
-1084 -1107 0
-1084 -1108 0
-1084 -1109 0
-1084 -1110 0
-1084 -1111 0
-1084 -1112 0
-1084 -1113 0
-1084 -1114 0
-1084 -1115 0
-1084 -1116 0
-1084 -1117 0
-1084 -1118 0
-1084 -1119 0
-1084 -1120 0
-1084 -1121 0
-1084 -1122 0
-1084 -1123 0
-1084 -1124 0
-1084 -1125 0
-1084 -1126 0
-1084 -1127 0
-1084 -1128 0
-1084 -1129 0
-1084 -1130 0
-1084 -1131 0
-1084 -1132 0
-1084 -1133 0
-1084 -1134 0
-1084 -1135 0
-1084 -1136 0
-1084 -1137 0
-1084 -1138 0
-1084 -1139 0
-1084 -1140 0
-1084 -1141 0
-1084 -1142 0
-1084 -1143 0
-1084 -1144 0
-1084 -1145 0
-1084 -1146 0
-1085 -1086 0
-1085 -1087 0
-1085 -1088 0
-1085 -1089 0
-1085 -1090 0
-1085 -1091 0
-1085 -1092 0
-1085 -1093 0
-1085 -1094 0
-1085 -1095 0
-1085 -1096 0
-1085 -1097 0
-1085 -1098 0
-1085 -1099 0
-1085 -1100 0
-1085 -1101 0
-1085 -1102 0
-1085 -1103 0
-1085 -1104 0
-1085 -1105 0
-1085 -1106 0
-1085 -1107 0
-1085 -1108 0
-1085 -1109 0
-1085 -1110 0
-1085 -1111 0
-1085 -1112 0
-1085 -1113 0
-1085 -1114 0
-1085 -1115 0
-1085 -1116 0
-1085 -1117 0
-1085 -1118 0
-1085 -1119 0
-1085 -1120 0
-1085 -1121 0
-1085 -1122 0
-1085 -1123 0
-1085 -1124 0
-1085 -1125 0
-1085 -1126 0
-1085 -1127 0
-1085 -1128 0
-1085 -1129 0
-1085 -1130 0
-1085 -1131 0
-1085 -1132 0
-1085 -1133 0
-1085 -1134 0
-1085 -1135 0
-1085 -1136 0
-1085 -1137 0
-1085 -1138 0
-1085 -1139 0
-1085 -1140 0
-1085 -1141 0
-1085 -1142 0
-1085 -1143 0
-1085 -1144 0
-1085 -1145 0
-1085 -1146 0
-1086 -1087 0
-1086 -1088 0
-1086 -1089 0
-1086 -1090 0
-1086 -1091 0
-1086 -1092 0
-1086 -1093 0
-1086 -1094 0
-1086 -1095 0
-1086 -1096 0
-1086 -1097 0
-1086 -1098 0
-1086 -1099 0
-1086 -1100 0
-1086 -1101 0
-1086 -1102 0
-1086 -1103 0
-1086 -1104 0
-1086 -1105 0
-1086 -1106 0
-1086 -1107 0
-1086 -1108 0
-1086 -1109 0
-1086 -1110 0
-1086 -1111 0
-1086 -1112 0
-1086 -1113 0
-1086 -1114 0
-1086 -1115 0
-1086 -1116 0
-1086 -1117 0
-1086 -1118 0
-1086 -1119 0
-1086 -1120 0
-1086 -1121 0
-1086 -1122 0
-1086 -1123 0
-1086 -1124 0
-1086 -1125 0
-1086 -1126 0
-1086 -1127 0
-1086 -1128 0
-1086 -1129 0
-1086 -1130 0
-1086 -1131 0
-1086 -1132 0
-1086 -1133 0
-1086 -1134 0
-1086 -1135 0
-1086 -1136 0
-1086 -1137 0
-1086 -1138 0
-1086 -1139 0
-1086 -1140 0
-1086 -1141 0
-1086 -1142 0
-1086 -1143 0
-1086 -1144 0
-1086 -1145 0
-1086 -1146 0
-1087 -1088 0
-1087 -1089 0
-1087 -1090 0
-1087 -1091 0
-1087 -1092 0
-1087 -1093 0
-1087 -1094 0
-1087 -1095 0
-1087 -1096 0
-1087 -1097 0
-1087 -1098 0
-1087 -1099 0
-1087 -1100 0
-1087 -1101 0
-1087 -1102 0
-1087 -1103 0
-1087 -1104 0
-1087 -1105 0
-1087 -1106 0
-1087 -1107 0
-1087 -1108 0
-1087 -1109 0
-1087 -1110 0
-1087 -1111 0
-1087 -1112 0
-1087 -1113 0
-1087 -1114 0
-1087 -1115 0
-1087 -1116 0
-1087 -1117 0
-1087 -1118 0
-1087 -1119 0
-1087 -1120 0
-1087 -1121 0
-1087 -1122 0
-1087 -1123 0
-1087 -1124 0
-1087 -1125 0
-1087 -1126 0
-1087 -1127 0
-1087 -1128 0
-1087 -1129 0
-1087 -1130 0
-1087 -1131 0
-1087 -1132 0
-1087 -1133 0
-1087 -1134 0
-1087 -1135 0
-1087 -1136 0
-1087 -1137 0
-1087 -1138 0
-1087 -1139 0
-1087 -1140 0
-1087 -1141 0
-1087 -1142 0
-1087 -1143 0
-1087 -1144 0
-1087 -1145 0
-1087 -1146 0
-1088 -1089 0
-1088 -1090 0
-1088 -1091 0
-1088 -1092 0
-1088 -1093 0
-1088 -1094 0
-1088 -1095 0
-1088 -1096 0
-1088 -1097 0
-1088 -1098 0
-1088 -1099 0
-1088 -1100 0
-1088 -1101 0
-1088 -1102 0
-1088 -1103 0
-1088 -1104 0
-1088 -1105 0
-1088 -1106 0
-1088 -1107 0
-1088 -1108 0
-1088 -1109 0
-1088 -1110 0
-1088 -1111 0
-1088 -1112 0
-1088 -1113 0
-1088 -1114 0
-1088 -1115 0
-1088 -1116 0
-1088 -1117 0
-1088 -1118 0
-1088 -1119 0
-1088 -1120 0
-1088 -1121 0
-1088 -1122 0
-1088 -1123 0
-1088 -1124 0
-1088 -1125 0
-1088 -1126 0
-1088 -1127 0
-1088 -1128 0
-1088 -1129 0
-1088 -1130 0
-1088 -1131 0
-1088 -1132 0
-1088 -1133 0
-1088 -1134 0
-1088 -1135 0
-1088 -1136 0
-1088 -1137 0
-1088 -1138 0
-1088 -1139 0
-1088 -1140 0
-1088 -1141 0
-1088 -1142 0
-1088 -1143 0
-1088 -1144 0
-1088 -1145 0
-1088 -1146 0
-1089 -1090 0
-1089 -1091 0
-1089 -1092 0
-1089 -1093 0
-1089 -1094 0
-1089 -1095 0
-1089 -1096 0
-1089 -1097 0
-1089 -1098 0
-1089 -1099 0
-1089 -1100 0
-1089 -1101 0
-1089 -1102 0
-1089 -1103 0
-1089 -1104 0
-1089 -1105 0
-1089 -1106 0
-1089 -1107 0
-1089 -1108 0
-1089 -1109 0
-1089 -1110 0
-1089 -1111 0
-1089 -1112 0
-1089 -1113 0
-1089 -1114 0
-1089 -1115 0
-1089 -1116 0
-1089 -1117 0
-1089 -1118 0
-1089 -1119 0
-1089 -1120 0
-1089 -1121 0
-1089 -1122 0
-1089 -1123 0
-1089 -1124 0
-1089 -1125 0
-1089 -1126 0
-1089 -1127 0
-1089 -1128 0
-1089 -1129 0
-1089 -1130 0
-1089 -1131 0
-1089 -1132 0
-1089 -1133 0
-1089 -1134 0
-1089 -1135 0
-1089 -1136 0
-1089 -1137 0
-1089 -1138 0
-1089 -1139 0
-1089 -1140 0
-1089 -1141 0
-1089 -1142 0
-1089 -1143 0
-1089 -1144 0
-1089 -1145 0
-1089 -1146 0
-1090 -1091 0
-1090 -1092 0
-1090 -1093 0
-1090 -1094 0
-1090 -1095 0
-1090 -1096 0
-1090 -1097 0
-1090 -1098 0
-1090 -1099 0
-1090 -1100 0
-1090 -1101 0
-1090 -1102 0
-1090 -1103 0
-1090 -1104 0
-1090 -1105 0
-1090 -1106 0
-1090 -1107 0
-1090 -1108 0
-1090 -1109 0
-1090 -1110 0
-1090 -1111 0
-1090 -1112 0
-1090 -1113 0
-1090 -1114 0
-1090 -1115 0
-1090 -1116 0
-1090 -1117 0
-1090 -1118 0
-1090 -1119 0
-1090 -1120 0
-1090 -1121 0
-1090 -1122 0
-1090 -1123 0
-1090 -1124 0
-1090 -1125 0
-1090 -1126 0
-1090 -1127 0
-1090 -1128 0
-1090 -1129 0
-1090 -1130 0
-1090 -1131 0
-1090 -1132 0
-1090 -1133 0
-1090 -1134 0
-1090 -1135 0
-1090 -1136 0
-1090 -1137 0
-1090 -1138 0
-1090 -1139 0
-1090 -1140 0
-1090 -1141 0
-1090 -1142 0
-1090 -1143 0
-1090 -1144 0
-1090 -1145 0
-1090 -1146 0
-1091 -1092 0
-1091 -1093 0
-1091 -1094 0
-1091 -1095 0
-1091 -1096 0
-1091 -1097 0
-1091 -1098 0
-1091 -1099 0
-1091 -1100 0
-1091 -1101 0
-1091 -1102 0
-1091 -1103 0
-1091 -1104 0
-1091 -1105 0
-1091 -1106 0
-1091 -1107 0
-1091 -1108 0
-1091 -1109 0
-1091 -1110 0
-1091 -1111 0
-1091 -1112 0
-1091 -1113 0
-1091 -1114 0
-1091 -1115 0
-1091 -1116 0
-1091 -1117 0
-1091 -1118 0
-1091 -1119 0
-1091 -1120 0
-1091 -1121 0
-1091 -1122 0
-1091 -1123 0
-1091 -1124 0
-1091 -1125 0
-1091 -1126 0
-1091 -1127 0
-1091 -1128 0
-1091 -1129 0
-1091 -1130 0
-1091 -1131 0
-1091 -1132 0
-1091 -1133 0
-1091 -1134 0
-1091 -1135 0
-1091 -1136 0
-1091 -1137 0
-1091 -1138 0
-1091 -1139 0
-1091 -1140 0
-1091 -1141 0
-1091 -1142 0
-1091 -1143 0
-1091 -1144 0
-1091 -1145 0
-1091 -1146 0
-1092 -1093 0
-1092 -1094 0
-1092 -1095 0
-1092 -1096 0
-1092 -1097 0
-1092 -1098 0
-1092 -1099 0
-1092 -1100 0
-1092 -1101 0
-1092 -1102 0
-1092 -1103 0
-1092 -1104 0
-1092 -1105 0
-1092 -1106 0
-1092 -1107 0
-1092 -1108 0
-1092 -1109 0
-1092 -1110 0
-1092 -1111 0
-1092 -1112 0
-1092 -1113 0
-1092 -1114 0
-1092 -1115 0
-1092 -1116 0
-1092 -1117 0
-1092 -1118 0
-1092 -1119 0
-1092 -1120 0
-1092 -1121 0
-1092 -1122 0
-1092 -1123 0
-1092 -1124 0
-1092 -1125 0
-1092 -1126 0
-1092 -1127 0
-1092 -1128 0
-1092 -1129 0
-1092 -1130 0
-1092 -1131 0
-1092 -1132 0
-1092 -1133 0
-1092 -1134 0
-1092 -1135 0
-1092 -1136 0
-1092 -1137 0
-1092 -1138 0
-1092 -1139 0
-1092 -1140 0
-1092 -1141 0
-1092 -1142 0
-1092 -1143 0
-1092 -1144 0
-1092 -1145 0
-1092 -1146 0
-1093 -1094 0
-1093 -1095 0
-1093 -1096 0
-1093 -1097 0
-1093 -1098 0
-1093 -1099 0
-1093 -1100 0
-1093 -1101 0
-1093 -1102 0
-1093 -1103 0
-1093 -1104 0
-1093 -1105 0
-1093 -1106 0
-1093 -1107 0
-1093 -1108 0
-1093 -1109 0
-1093 -1110 0
-1093 -1111 0
-1093 -1112 0
-1093 -1113 0
-1093 -1114 0
-1093 -1115 0
-1093 -1116 0
-1093 -1117 0
-1093 -1118 0
-1093 -1119 0
-1093 -1120 0
-1093 -1121 0
-1093 -1122 0
-1093 -1123 0
-1093 -1124 0
-1093 -1125 0
-1093 -1126 0
-1093 -1127 0
-1093 -1128 0
-1093 -1129 0
-1093 -1130 0
-1093 -1131 0
-1093 -1132 0
-1093 -1133 0
-1093 -1134 0
-1093 -1135 0
-1093 -1136 0
-1093 -1137 0
-1093 -1138 0
-1093 -1139 0
-1093 -1140 0
-1093 -1141 0
-1093 -1142 0
-1093 -1143 0
-1093 -1144 0
-1093 -1145 0
-1093 -1146 0
-1094 -1095 0
-1094 -1096 0
-1094 -1097 0
-1094 -1098 0
-1094 -1099 0
-1094 -1100 0
-1094 -1101 0
-1094 -1102 0
-1094 -1103 0
-1094 -1104 0
-1094 -1105 0
-1094 -1106 0
-1094 -1107 0
-1094 -1108 0
-1094 -1109 0
-1094 -1110 0
-1094 -1111 0
-1094 -1112 0
-1094 -1113 0
-1094 -1114 0
-1094 -1115 0
-1094 -1116 0
-1094 -1117 0
-1094 -1118 0
-1094 -1119 0
-1094 -1120 0
-1094 -1121 0
-1094 -1122 0
-1094 -1123 0
-1094 -1124 0
-1094 -1125 0
-1094 -1126 0
-1094 -1127 0
-1094 -1128 0
-1094 -1129 0
-1094 -1130 0
-1094 -1131 0
-1094 -1132 0
-1094 -1133 0
-1094 -1134 0
-1094 -1135 0
-1094 -1136 0
-1094 -1137 0
-1094 -1138 0
-1094 -1139 0
-1094 -1140 0
-1094 -1141 0
-1094 -1142 0
-1094 -1143 0
-1094 -1144 0
-1094 -1145 0
-1094 -1146 0
-1095 -1096 0
-1095 -1097 0
-1095 -1098 0
-1095 -1099 0
-1095 -1100 0
-1095 -1101 0
-1095 -1102 0
-1095 -1103 0
-1095 -1104 0
-1095 -1105 0
-1095 -1106 0
-1095 -1107 0
-1095 -1108 0
-1095 -1109 0
-1095 -1110 0
-1095 -1111 0
-1095 -1112 0
-1095 -1113 0
-1095 -1114 0
-1095 -1115 0
-1095 -1116 0
-1095 -1117 0
-1095 -1118 0
-1095 -1119 0
-1095 -1120 0
-1095 -1121 0
-1095 -1122 0
-1095 -1123 0
-1095 -1124 0
-1095 -1125 0
-1095 -1126 0
-1095 -1127 0
-1095 -1128 0
-1095 -1129 0
-1095 -1130 0
-1095 -1131 0
-1095 -1132 0
-1095 -1133 0
-1095 -1134 0
-1095 -1135 0
-1095 -1136 0
-1095 -1137 0
-1095 -1138 0
-1095 -1139 0
-1095 -1140 0
-1095 -1141 0
-1095 -1142 0
-1095 -1143 0
-1095 -1144 0
-1095 -1145 0
-1095 -1146 0
-1096 -1097 0
-1096 -1098 0
-1096 -1099 0
-1096 -1100 0
-1096 -1101 0
-1096 -1102 0
-1096 -1103 0
-1096 -1104 0
-1096 -1105 0
-1096 -1106 0
-1096 -1107 0
-1096 -1108 0
-1096 -1109 0
-1096 -1110 0
-1096 -1111 0
-1096 -1112 0
-1096 -1113 0
-1096 -1114 0
-1096 -1115 0
-1096 -1116 0
-1096 -1117 0
-1096 -1118 0
-1096 -1119 0
-1096 -1120 0
-1096 -1121 0
-1096 -1122 0
-1096 -1123 0
-1096 -1124 0
-1096 -1125 0
-1096 -1126 0
-1096 -1127 0
-1096 -1128 0
-1096 -1129 0
-1096 -1130 0
-1096 -1131 0
-1096 -1132 0
-1096 -1133 0
-1096 -1134 0
-1096 -1135 0
-1096 -1136 0
-1096 -1137 0
-1096 -1138 0
-1096 -1139 0
-1096 -1140 0
-1096 -1141 0
-1096 -1142 0
-1096 -1143 0
-1096 -1144 0
-1096 -1145 0
-1096 -1146 0
-1097 -1098 0
-1097 -1099 0
-1097 -1100 0
-1097 -1101 0
-1097 -1102 0
-1097 -1103 0
-1097 -1104 0
-1097 -1105 0
-1097 -1106 0
-1097 -1107 0
-1097 -1108 0
-1097 -1109 0
-1097 -1110 0
-1097 -1111 0
-1097 -1112 0
-1097 -1113 0
-1097 -1114 0
-1097 -1115 0
-1097 -1116 0
-1097 -1117 0
-1097 -1118 0
-1097 -1119 0
-1097 -1120 0
-1097 -1121 0
-1097 -1122 0
-1097 -1123 0
-1097 -1124 0
-1097 -1125 0
-1097 -1126 0
-1097 -1127 0
-1097 -1128 0
-1097 -1129 0
-1097 -1130 0
-1097 -1131 0
-1097 -1132 0
-1097 -1133 0
-1097 -1134 0
-1097 -1135 0
-1097 -1136 0
-1097 -1137 0
-1097 -1138 0
-1097 -1139 0
-1097 -1140 0
-1097 -1141 0
-1097 -1142 0
-1097 -1143 0
-1097 -1144 0
-1097 -1145 0
-1097 -1146 0
-1098 -1099 0
-1098 -1100 0
-1098 -1101 0
-1098 -1102 0
-1098 -1103 0
-1098 -1104 0
-1098 -1105 0
-1098 -1106 0
-1098 -1107 0
-1098 -1108 0
-1098 -1109 0
-1098 -1110 0
-1098 -1111 0
-1098 -1112 0
-1098 -1113 0
-1098 -1114 0
-1098 -1115 0
-1098 -1116 0
-1098 -1117 0
-1098 -1118 0
-1098 -1119 0
-1098 -1120 0
-1098 -1121 0
-1098 -1122 0
-1098 -1123 0
-1098 -1124 0
-1098 -1125 0
-1098 -1126 0
-1098 -1127 0
-1098 -1128 0
-1098 -1129 0
-1098 -1130 0
-1098 -1131 0
-1098 -1132 0
-1098 -1133 0
-1098 -1134 0
-1098 -1135 0
-1098 -1136 0
-1098 -1137 0
-1098 -1138 0
-1098 -1139 0
-1098 -1140 0
-1098 -1141 0
-1098 -1142 0
-1098 -1143 0
-1098 -1144 0
-1098 -1145 0
-1098 -1146 0
-1099 -1100 0
-1099 -1101 0
-1099 -1102 0
-1099 -1103 0
-1099 -1104 0
-1099 -1105 0
-1099 -1106 0
-1099 -1107 0
-1099 -1108 0
-1099 -1109 0
-1099 -1110 0
-1099 -1111 0
-1099 -1112 0
-1099 -1113 0
-1099 -1114 0
-1099 -1115 0
-1099 -1116 0
-1099 -1117 0
-1099 -1118 0
-1099 -1119 0
-1099 -1120 0
-1099 -1121 0
-1099 -1122 0
-1099 -1123 0
-1099 -1124 0
-1099 -1125 0
-1099 -1126 0
-1099 -1127 0
-1099 -1128 0
-1099 -1129 0
-1099 -1130 0
-1099 -1131 0
-1099 -1132 0
-1099 -1133 0
-1099 -1134 0
-1099 -1135 0
-1099 -1136 0
-1099 -1137 0
-1099 -1138 0
-1099 -1139 0
-1099 -1140 0
-1099 -1141 0
-1099 -1142 0
-1099 -1143 0
-1099 -1144 0
-1099 -1145 0
-1099 -1146 0
-1100 -1101 0
-1100 -1102 0
-1100 -1103 0
-1100 -1104 0
-1100 -1105 0
-1100 -1106 0
-1100 -1107 0
-1100 -1108 0
-1100 -1109 0
-1100 -1110 0
-1100 -1111 0
-1100 -1112 0
-1100 -1113 0
-1100 -1114 0
-1100 -1115 0
-1100 -1116 0
-1100 -1117 0
-1100 -1118 0
-1100 -1119 0
-1100 -1120 0
-1100 -1121 0
-1100 -1122 0
-1100 -1123 0
-1100 -1124 0
-1100 -1125 0
-1100 -1126 0
-1100 -1127 0
-1100 -1128 0
-1100 -1129 0
-1100 -1130 0
-1100 -1131 0
-1100 -1132 0
-1100 -1133 0
-1100 -1134 0
-1100 -1135 0
-1100 -1136 0
-1100 -1137 0
-1100 -1138 0
-1100 -1139 0
-1100 -1140 0
-1100 -1141 0
-1100 -1142 0
-1100 -1143 0
-1100 -1144 0
-1100 -1145 0
-1100 -1146 0
-1101 -1102 0
-1101 -1103 0
-1101 -1104 0
-1101 -1105 0
-1101 -1106 0
-1101 -1107 0
-1101 -1108 0
-1101 -1109 0
-1101 -1110 0
-1101 -1111 0
-1101 -1112 0
-1101 -1113 0
-1101 -1114 0
-1101 -1115 0
-1101 -1116 0
-1101 -1117 0
-1101 -1118 0
-1101 -1119 0
-1101 -1120 0
-1101 -1121 0
-1101 -1122 0
-1101 -1123 0
-1101 -1124 0
-1101 -1125 0
-1101 -1126 0
-1101 -1127 0
-1101 -1128 0
-1101 -1129 0
-1101 -1130 0
-1101 -1131 0
-1101 -1132 0
-1101 -1133 0
-1101 -1134 0
-1101 -1135 0
-1101 -1136 0
-1101 -1137 0
-1101 -1138 0
-1101 -1139 0
-1101 -1140 0
-1101 -1141 0
-1101 -1142 0
-1101 -1143 0
-1101 -1144 0
-1101 -1145 0
-1101 -1146 0
-1102 -1103 0
-1102 -1104 0
-1102 -1105 0
-1102 -1106 0
-1102 -1107 0
-1102 -1108 0
-1102 -1109 0
-1102 -1110 0
-1102 -1111 0
-1102 -1112 0
-1102 -1113 0
-1102 -1114 0
-1102 -1115 0
-1102 -1116 0
-1102 -1117 0
-1102 -1118 0
-1102 -1119 0
-1102 -1120 0
-1102 -1121 0
-1102 -1122 0
-1102 -1123 0
-1102 -1124 0
-1102 -1125 0
-1102 -1126 0
-1102 -1127 0
-1102 -1128 0
-1102 -1129 0
-1102 -1130 0
-1102 -1131 0
-1102 -1132 0
-1102 -1133 0
-1102 -1134 0
-1102 -1135 0
-1102 -1136 0
-1102 -1137 0
-1102 -1138 0
-1102 -1139 0
-1102 -1140 0
-1102 -1141 0
-1102 -1142 0
-1102 -1143 0
-1102 -1144 0
-1102 -1145 0
-1102 -1146 0
-1103 -1104 0
-1103 -1105 0
-1103 -1106 0
-1103 -1107 0
-1103 -1108 0
-1103 -1109 0
-1103 -1110 0
-1103 -1111 0
-1103 -1112 0
-1103 -1113 0
-1103 -1114 0
-1103 -1115 0
-1103 -1116 0
-1103 -1117 0
-1103 -1118 0
-1103 -1119 0
-1103 -1120 0
-1103 -1121 0
-1103 -1122 0
-1103 -1123 0
-1103 -1124 0
-1103 -1125 0
-1103 -1126 0
-1103 -1127 0
-1103 -1128 0
-1103 -1129 0
-1103 -1130 0
-1103 -1131 0
-1103 -1132 0
-1103 -1133 0
-1103 -1134 0
-1103 -1135 0
-1103 -1136 0
-1103 -1137 0
-1103 -1138 0
-1103 -1139 0
-1103 -1140 0
-1103 -1141 0
-1103 -1142 0
-1103 -1143 0
-1103 -1144 0
-1103 -1145 0
-1103 -1146 0
-1104 -1105 0
-1104 -1106 0
-1104 -1107 0
-1104 -1108 0
-1104 -1109 0
-1104 -1110 0
-1104 -1111 0
-1104 -1112 0
-1104 -1113 0
-1104 -1114 0
-1104 -1115 0
-1104 -1116 0
-1104 -1117 0
-1104 -1118 0
-1104 -1119 0
-1104 -1120 0
-1104 -1121 0
-1104 -1122 0
-1104 -1123 0
-1104 -1124 0
-1104 -1125 0
-1104 -1126 0
-1104 -1127 0
-1104 -1128 0
-1104 -1129 0
-1104 -1130 0
-1104 -1131 0
-1104 -1132 0
-1104 -1133 0
-1104 -1134 0
-1104 -1135 0
-1104 -1136 0
-1104 -1137 0
-1104 -1138 0
-1104 -1139 0
-1104 -1140 0
-1104 -1141 0
-1104 -1142 0
-1104 -1143 0
-1104 -1144 0
-1104 -1145 0
-1104 -1146 0
-1105 -1106 0
-1105 -1107 0
-1105 -1108 0
-1105 -1109 0
-1105 -1110 0
-1105 -1111 0
-1105 -1112 0
-1105 -1113 0
-1105 -1114 0
-1105 -1115 0
-1105 -1116 0
-1105 -1117 0
-1105 -1118 0
-1105 -1119 0
-1105 -1120 0
-1105 -1121 0
-1105 -1122 0
-1105 -1123 0
-1105 -1124 0
-1105 -1125 0
-1105 -1126 0
-1105 -1127 0
-1105 -1128 0
-1105 -1129 0
-1105 -1130 0
-1105 -1131 0
-1105 -1132 0
-1105 -1133 0
-1105 -1134 0
-1105 -1135 0
-1105 -1136 0
-1105 -1137 0
-1105 -1138 0
-1105 -1139 0
-1105 -1140 0
-1105 -1141 0
-1105 -1142 0
-1105 -1143 0
-1105 -1144 0
-1105 -1145 0
-1105 -1146 0
-1106 -1107 0
-1106 -1108 0
-1106 -1109 0
-1106 -1110 0
-1106 -1111 0
-1106 -1112 0
-1106 -1113 0
-1106 -1114 0
-1106 -1115 0
-1106 -1116 0
-1106 -1117 0
-1106 -1118 0
-1106 -1119 0
-1106 -1120 0
-1106 -1121 0
-1106 -1122 0
-1106 -1123 0
-1106 -1124 0
-1106 -1125 0
-1106 -1126 0
-1106 -1127 0
-1106 -1128 0
-1106 -1129 0
-1106 -1130 0
-1106 -1131 0
-1106 -1132 0
-1106 -1133 0
-1106 -1134 0
-1106 -1135 0
-1106 -1136 0
-1106 -1137 0
-1106 -1138 0
-1106 -1139 0
-1106 -1140 0
-1106 -1141 0
-1106 -1142 0
-1106 -1143 0
-1106 -1144 0
-1106 -1145 0
-1106 -1146 0
-1107 -1108 0
-1107 -1109 0
-1107 -1110 0
-1107 -1111 0
-1107 -1112 0
-1107 -1113 0
-1107 -1114 0
-1107 -1115 0
-1107 -1116 0
-1107 -1117 0
-1107 -1118 0
-1107 -1119 0
-1107 -1120 0
-1107 -1121 0
-1107 -1122 0
-1107 -1123 0
-1107 -1124 0
-1107 -1125 0
-1107 -1126 0
-1107 -1127 0
-1107 -1128 0
-1107 -1129 0
-1107 -1130 0
-1107 -1131 0
-1107 -1132 0
-1107 -1133 0
-1107 -1134 0
-1107 -1135 0
-1107 -1136 0
-1107 -1137 0
-1107 -1138 0
-1107 -1139 0
-1107 -1140 0
-1107 -1141 0
-1107 -1142 0
-1107 -1143 0
-1107 -1144 0
-1107 -1145 0
-1107 -1146 0
-1108 -1109 0
-1108 -1110 0
-1108 -1111 0
-1108 -1112 0
-1108 -1113 0
-1108 -1114 0
-1108 -1115 0
-1108 -1116 0
-1108 -1117 0
-1108 -1118 0
-1108 -1119 0
-1108 -1120 0
-1108 -1121 0
-1108 -1122 0
-1108 -1123 0
-1108 -1124 0
-1108 -1125 0
-1108 -1126 0
-1108 -1127 0
-1108 -1128 0
-1108 -1129 0
-1108 -1130 0
-1108 -1131 0
-1108 -1132 0
-1108 -1133 0
-1108 -1134 0
-1108 -1135 0
-1108 -1136 0
-1108 -1137 0
-1108 -1138 0
-1108 -1139 0
-1108 -1140 0
-1108 -1141 0
-1108 -1142 0
-1108 -1143 0
-1108 -1144 0
-1108 -1145 0
-1108 -1146 0
-1109 -1110 0
-1109 -1111 0
-1109 -1112 0
-1109 -1113 0
-1109 -1114 0
-1109 -1115 0
-1109 -1116 0
-1109 -1117 0
-1109 -1118 0
-1109 -1119 0
-1109 -1120 0
-1109 -1121 0
-1109 -1122 0
-1109 -1123 0
-1109 -1124 0
-1109 -1125 0
-1109 -1126 0
-1109 -1127 0
-1109 -1128 0
-1109 -1129 0
-1109 -1130 0
-1109 -1131 0
-1109 -1132 0
-1109 -1133 0
-1109 -1134 0
-1109 -1135 0
-1109 -1136 0
-1109 -1137 0
-1109 -1138 0
-1109 -1139 0
-1109 -1140 0
-1109 -1141 0
-1109 -1142 0
-1109 -1143 0
-1109 -1144 0
-1109 -1145 0
-1109 -1146 0
-1110 -1111 0
-1110 -1112 0
-1110 -1113 0
-1110 -1114 0
-1110 -1115 0
-1110 -1116 0
-1110 -1117 0
-1110 -1118 0
-1110 -1119 0
-1110 -1120 0
-1110 -1121 0
-1110 -1122 0
-1110 -1123 0
-1110 -1124 0
-1110 -1125 0
-1110 -1126 0
-1110 -1127 0
-1110 -1128 0
-1110 -1129 0
-1110 -1130 0
-1110 -1131 0
-1110 -1132 0
-1110 -1133 0
-1110 -1134 0
-1110 -1135 0
-1110 -1136 0
-1110 -1137 0
-1110 -1138 0
-1110 -1139 0
-1110 -1140 0
-1110 -1141 0
-1110 -1142 0
-1110 -1143 0
-1110 -1144 0
-1110 -1145 0
-1110 -1146 0
-1111 -1112 0
-1111 -1113 0
-1111 -1114 0
-1111 -1115 0
-1111 -1116 0
-1111 -1117 0
-1111 -1118 0
-1111 -1119 0
-1111 -1120 0
-1111 -1121 0
-1111 -1122 0
-1111 -1123 0
-1111 -1124 0
-1111 -1125 0
-1111 -1126 0
-1111 -1127 0
-1111 -1128 0
-1111 -1129 0
-1111 -1130 0
-1111 -1131 0
-1111 -1132 0
-1111 -1133 0
-1111 -1134 0
-1111 -1135 0
-1111 -1136 0
-1111 -1137 0
-1111 -1138 0
-1111 -1139 0
-1111 -1140 0
-1111 -1141 0
-1111 -1142 0
-1111 -1143 0
-1111 -1144 0
-1111 -1145 0
-1111 -1146 0
-1112 -1113 0
-1112 -1114 0
-1112 -1115 0
-1112 -1116 0
-1112 -1117 0
-1112 -1118 0
-1112 -1119 0
-1112 -1120 0
-1112 -1121 0
-1112 -1122 0
-1112 -1123 0
-1112 -1124 0
-1112 -1125 0
-1112 -1126 0
-1112 -1127 0
-1112 -1128 0
-1112 -1129 0
-1112 -1130 0
-1112 -1131 0
-1112 -1132 0
-1112 -1133 0
-1112 -1134 0
-1112 -1135 0
-1112 -1136 0
-1112 -1137 0
-1112 -1138 0
-1112 -1139 0
-1112 -1140 0
-1112 -1141 0
-1112 -1142 0
-1112 -1143 0
-1112 -1144 0
-1112 -1145 0
-1112 -1146 0
-1113 -1114 0
-1113 -1115 0
-1113 -1116 0
-1113 -1117 0
-1113 -1118 0
-1113 -1119 0
-1113 -1120 0
-1113 -1121 0
-1113 -1122 0
-1113 -1123 0
-1113 -1124 0
-1113 -1125 0
-1113 -1126 0
-1113 -1127 0
-1113 -1128 0
-1113 -1129 0
-1113 -1130 0
-1113 -1131 0
-1113 -1132 0
-1113 -1133 0
-1113 -1134 0
-1113 -1135 0
-1113 -1136 0
-1113 -1137 0
-1113 -1138 0
-1113 -1139 0
-1113 -1140 0
-1113 -1141 0
-1113 -1142 0
-1113 -1143 0
-1113 -1144 0
-1113 -1145 0
-1113 -1146 0
-1114 -1115 0
-1114 -1116 0
-1114 -1117 0
-1114 -1118 0
-1114 -1119 0
-1114 -1120 0
-1114 -1121 0
-1114 -1122 0
-1114 -1123 0
-1114 -1124 0
-1114 -1125 0
-1114 -1126 0
-1114 -1127 0
-1114 -1128 0
-1114 -1129 0
-1114 -1130 0
-1114 -1131 0
-1114 -1132 0
-1114 -1133 0
-1114 -1134 0
-1114 -1135 0
-1114 -1136 0
-1114 -1137 0
-1114 -1138 0
-1114 -1139 0
-1114 -1140 0
-1114 -1141 0
-1114 -1142 0
-1114 -1143 0
-1114 -1144 0
-1114 -1145 0
-1114 -1146 0
-1115 -1116 0
-1115 -1117 0
-1115 -1118 0
-1115 -1119 0
-1115 -1120 0
-1115 -1121 0
-1115 -1122 0
-1115 -1123 0
-1115 -1124 0
-1115 -1125 0
-1115 -1126 0
-1115 -1127 0
-1115 -1128 0
-1115 -1129 0
-1115 -1130 0
-1115 -1131 0
-1115 -1132 0
-1115 -1133 0
-1115 -1134 0
-1115 -1135 0
-1115 -1136 0
-1115 -1137 0
-1115 -1138 0
-1115 -1139 0
-1115 -1140 0
-1115 -1141 0
-1115 -1142 0
-1115 -1143 0
-1115 -1144 0
-1115 -1145 0
-1115 -1146 0
-1116 -1117 0
-1116 -1118 0
-1116 -1119 0
-1116 -1120 0
-1116 -1121 0
-1116 -1122 0
-1116 -1123 0
-1116 -1124 0
-1116 -1125 0
-1116 -1126 0
-1116 -1127 0
-1116 -1128 0
-1116 -1129 0
-1116 -1130 0
-1116 -1131 0
-1116 -1132 0
-1116 -1133 0
-1116 -1134 0
-1116 -1135 0
-1116 -1136 0
-1116 -1137 0
-1116 -1138 0
-1116 -1139 0
-1116 -1140 0
-1116 -1141 0
-1116 -1142 0
-1116 -1143 0
-1116 -1144 0
-1116 -1145 0
-1116 -1146 0
-1117 -1118 0
-1117 -1119 0
-1117 -1120 0
-1117 -1121 0
-1117 -1122 0
-1117 -1123 0
-1117 -1124 0
-1117 -1125 0
-1117 -1126 0
-1117 -1127 0
-1117 -1128 0
-1117 -1129 0
-1117 -1130 0
-1117 -1131 0
-1117 -1132 0
-1117 -1133 0
-1117 -1134 0
-1117 -1135 0
-1117 -1136 0
-1117 -1137 0
-1117 -1138 0
-1117 -1139 0
-1117 -1140 0
-1117 -1141 0
-1117 -1142 0
-1117 -1143 0
-1117 -1144 0
-1117 -1145 0
-1117 -1146 0
-1118 -1119 0
-1118 -1120 0
-1118 -1121 0
-1118 -1122 0
-1118 -1123 0
-1118 -1124 0
-1118 -1125 0
-1118 -1126 0
-1118 -1127 0
-1118 -1128 0
-1118 -1129 0
-1118 -1130 0
-1118 -1131 0
-1118 -1132 0
-1118 -1133 0
-1118 -1134 0
-1118 -1135 0
-1118 -1136 0
-1118 -1137 0
-1118 -1138 0
-1118 -1139 0
-1118 -1140 0
-1118 -1141 0
-1118 -1142 0
-1118 -1143 0
-1118 -1144 0
-1118 -1145 0
-1118 -1146 0
-1119 -1120 0
-1119 -1121 0
-1119 -1122 0
-1119 -1123 0
-1119 -1124 0
-1119 -1125 0
-1119 -1126 0
-1119 -1127 0
-1119 -1128 0
-1119 -1129 0
-1119 -1130 0
-1119 -1131 0
-1119 -1132 0
-1119 -1133 0
-1119 -1134 0
-1119 -1135 0
-1119 -1136 0
-1119 -1137 0
-1119 -1138 0
-1119 -1139 0
-1119 -1140 0
-1119 -1141 0
-1119 -1142 0
-1119 -1143 0
-1119 -1144 0
-1119 -1145 0
-1119 -1146 0
-1120 -1121 0
-1120 -1122 0
-1120 -1123 0
-1120 -1124 0
-1120 -1125 0
-1120 -1126 0
-1120 -1127 0
-1120 -1128 0
-1120 -1129 0
-1120 -1130 0
-1120 -1131 0
-1120 -1132 0
-1120 -1133 0
-1120 -1134 0
-1120 -1135 0
-1120 -1136 0
-1120 -1137 0
-1120 -1138 0
-1120 -1139 0
-1120 -1140 0
-1120 -1141 0
-1120 -1142 0
-1120 -1143 0
-1120 -1144 0
-1120 -1145 0
-1120 -1146 0
-1121 -1122 0
-1121 -1123 0
-1121 -1124 0
-1121 -1125 0
-1121 -1126 0
-1121 -1127 0
-1121 -1128 0
-1121 -1129 0
-1121 -1130 0
-1121 -1131 0
-1121 -1132 0
-1121 -1133 0
-1121 -1134 0
-1121 -1135 0
-1121 -1136 0
-1121 -1137 0
-1121 -1138 0
-1121 -1139 0
-1121 -1140 0
-1121 -1141 0
-1121 -1142 0
-1121 -1143 0
-1121 -1144 0
-1121 -1145 0
-1121 -1146 0
-1122 -1123 0
-1122 -1124 0
-1122 -1125 0
-1122 -1126 0
-1122 -1127 0
-1122 -1128 0
-1122 -1129 0
-1122 -1130 0
-1122 -1131 0
-1122 -1132 0
-1122 -1133 0
-1122 -1134 0
-1122 -1135 0
-1122 -1136 0
-1122 -1137 0
-1122 -1138 0
-1122 -1139 0
-1122 -1140 0
-1122 -1141 0
-1122 -1142 0
-1122 -1143 0
-1122 -1144 0
-1122 -1145 0
-1122 -1146 0
-1123 -1124 0
-1123 -1125 0
-1123 -1126 0
-1123 -1127 0
-1123 -1128 0
-1123 -1129 0
-1123 -1130 0
-1123 -1131 0
-1123 -1132 0
-1123 -1133 0
-1123 -1134 0
-1123 -1135 0
-1123 -1136 0
-1123 -1137 0
-1123 -1138 0
-1123 -1139 0
-1123 -1140 0
-1123 -1141 0
-1123 -1142 0
-1123 -1143 0
-1123 -1144 0
-1123 -1145 0
-1123 -1146 0
-1124 -1125 0
-1124 -1126 0
-1124 -1127 0
-1124 -1128 0
-1124 -1129 0
-1124 -1130 0
-1124 -1131 0
-1124 -1132 0
-1124 -1133 0
-1124 -1134 0
-1124 -1135 0
-1124 -1136 0
-1124 -1137 0
-1124 -1138 0
-1124 -1139 0
-1124 -1140 0
-1124 -1141 0
-1124 -1142 0
-1124 -1143 0
-1124 -1144 0
-1124 -1145 0
-1124 -1146 0
-1125 -1126 0
-1125 -1127 0
-1125 -1128 0
-1125 -1129 0
-1125 -1130 0
-1125 -1131 0
-1125 -1132 0
-1125 -1133 0
-1125 -1134 0
-1125 -1135 0
-1125 -1136 0
-1125 -1137 0
-1125 -1138 0
-1125 -1139 0
-1125 -1140 0
-1125 -1141 0
-1125 -1142 0
-1125 -1143 0
-1125 -1144 0
-1125 -1145 0
-1125 -1146 0
-1126 -1127 0
-1126 -1128 0
-1126 -1129 0
-1126 -1130 0
-1126 -1131 0
-1126 -1132 0
-1126 -1133 0
-1126 -1134 0
-1126 -1135 0
-1126 -1136 0
-1126 -1137 0
-1126 -1138 0
-1126 -1139 0
-1126 -1140 0
-1126 -1141 0
-1126 -1142 0
-1126 -1143 0
-1126 -1144 0
-1126 -1145 0
-1126 -1146 0
-1127 -1128 0
-1127 -1129 0
-1127 -1130 0
-1127 -1131 0
-1127 -1132 0
-1127 -1133 0
-1127 -1134 0
-1127 -1135 0
-1127 -1136 0
-1127 -1137 0
-1127 -1138 0
-1127 -1139 0
-1127 -1140 0
-1127 -1141 0
-1127 -1142 0
-1127 -1143 0
-1127 -1144 0
-1127 -1145 0
-1127 -1146 0
-1128 -1129 0
-1128 -1130 0
-1128 -1131 0
-1128 -1132 0
-1128 -1133 0
-1128 -1134 0
-1128 -1135 0
-1128 -1136 0
-1128 -1137 0
-1128 -1138 0
-1128 -1139 0
-1128 -1140 0
-1128 -1141 0
-1128 -1142 0
-1128 -1143 0
-1128 -1144 0
-1128 -1145 0
-1128 -1146 0
-1129 -1130 0
-1129 -1131 0
-1129 -1132 0
-1129 -1133 0
-1129 -1134 0
-1129 -1135 0
-1129 -1136 0
-1129 -1137 0
-1129 -1138 0
-1129 -1139 0
-1129 -1140 0
-1129 -1141 0
-1129 -1142 0
-1129 -1143 0
-1129 -1144 0
-1129 -1145 0
-1129 -1146 0
-1130 -1131 0
-1130 -1132 0
-1130 -1133 0
-1130 -1134 0
-1130 -1135 0
-1130 -1136 0
-1130 -1137 0
-1130 -1138 0
-1130 -1139 0
-1130 -1140 0
-1130 -1141 0
-1130 -1142 0
-1130 -1143 0
-1130 -1144 0
-1130 -1145 0
-1130 -1146 0
-1131 -1132 0
-1131 -1133 0
-1131 -1134 0
-1131 -1135 0
-1131 -1136 0
-1131 -1137 0
-1131 -1138 0
-1131 -1139 0
-1131 -1140 0
-1131 -1141 0
-1131 -1142 0
-1131 -1143 0
-1131 -1144 0
-1131 -1145 0
-1131 -1146 0
-1132 -1133 0
-1132 -1134 0
-1132 -1135 0
-1132 -1136 0
-1132 -1137 0
-1132 -1138 0
-1132 -1139 0
-1132 -1140 0
-1132 -1141 0
-1132 -1142 0
-1132 -1143 0
-1132 -1144 0
-1132 -1145 0
-1132 -1146 0
-1133 -1134 0
-1133 -1135 0
-1133 -1136 0
-1133 -1137 0
-1133 -1138 0
-1133 -1139 0
-1133 -1140 0
-1133 -1141 0
-1133 -1142 0
-1133 -1143 0
-1133 -1144 0
-1133 -1145 0
-1133 -1146 0
-1134 -1135 0
-1134 -1136 0
-1134 -1137 0
-1134 -1138 0
-1134 -1139 0
-1134 -1140 0
-1134 -1141 0
-1134 -1142 0
-1134 -1143 0
-1134 -1144 0
-1134 -1145 0
-1134 -1146 0
-1135 -1136 0
-1135 -1137 0
-1135 -1138 0
-1135 -1139 0
-1135 -1140 0
-1135 -1141 0
-1135 -1142 0
-1135 -1143 0
-1135 -1144 0
-1135 -1145 0
-1135 -1146 0
-1136 -1137 0
-1136 -1138 0
-1136 -1139 0
-1136 -1140 0
-1136 -1141 0
-1136 -1142 0
-1136 -1143 0
-1136 -1144 0
-1136 -1145 0
-1136 -1146 0
-1137 -1138 0
-1137 -1139 0
-1137 -1140 0
-1137 -1141 0
-1137 -1142 0
-1137 -1143 0
-1137 -1144 0
-1137 -1145 0
-1137 -1146 0
-1138 -1139 0
-1138 -1140 0
-1138 -1141 0
-1138 -1142 0
-1138 -1143 0
-1138 -1144 0
-1138 -1145 0
-1138 -1146 0
-1139 -1140 0
-1139 -1141 0
-1139 -1142 0
-1139 -1143 0
-1139 -1144 0
-1139 -1145 0
-1139 -1146 0
-1140 -1141 0
-1140 -1142 0
-1140 -1143 0
-1140 -1144 0
-1140 -1145 0
-1140 -1146 0
-1141 -1142 0
-1141 -1143 0
-1141 -1144 0
-1141 -1145 0
-1141 -1146 0
-1142 -1143 0
-1142 -1144 0
-1142 -1145 0
-1142 -1146 0
-1143 -1144 0
-1143 -1145 0
-1143 -1146 0
-1144 -1145 0
-1144 -1146 0
-1145 -1146 0
-299 448 1063 1064 1065 1066 1067 1068 1069 1070 1071 1072 1073 1074 1075 1076 1077 1078 1079 1080 1081 1082 1083 1084 1085 1086 0
299 -448 1063 1064 1065 1066 1067 1068 1069 1070 1071 1072 1073 1074 1075 1076 1077 1078 1079 1080 1081 1082 1083 1084 1085 1086 0
-300 449 1063 1064 1065 1066 1067 1068 1069 1070 1071 1072 1073 1074 1075 1076 1077 1078 1079 1080 1081 1082 1083 1084 1085 1086 0
300 -449 1063 1064 1065 1066 1067 1068 1069 1070 1071 1072 1073 1074 1075 1076 1077 1078 1079 1080 1081 1082 1083 1084 1085 1086 0
-301 450 1063 1064 1065 1066 1067 1068 1069 1070 1071 1072 1073 1074 1075 1076 1077 1078 1079 1080 1081 1082 1083 1084 1085 1086 0
301 -450 1063 1064 1065 1066 1067 1068 1069 1070 1071 1072 1073 1074 1075 1076 1077 1078 1079 1080 1081 1082 1083 1084 1085 1086 0
-302 451 1063 1064 1065 1066 1067 1068 1069 1070 1071 1072 1073 1074 1075 1076 1077 1078 1079 1080 1081 1082 1083 1084 1085 1086 0
302 -451 1063 1064 1065 1066 1067 1068 1069 1070 1071 1072 1073 1074 1075 1076 1077 1078 1079 1080 1081 1082 1083 1084 1085 1086 0
-303 452 1063 1064 1065 1066 1067 1068 1069 1070 1071 1072 1073 1074 1075 1076 1077 1078 1079 1080 1081 1082 1083 1084 1085 1086 0
303 -452 1063 1064 1065 1066 1067 1068 1069 1070 1071 1072 1073 1074 1075 1076 1077 1078 1079 1080 1081 1082 1083 1084 1085 1086 0
-304 453 1063 1064 1065 1066 1067 1068 1069 1070 1071 1072 1073 1074 1075 1076 1077 1078 1079 1080 1081 1082 1083 1084 1085 1086 0
304 -453 1063 1064 1065 1066 1067 1068 1069 1070 1071 1072 1073 1074 1075 1076 1077 1078 1079 1080 1081 1082 1083 1084 1085 1086 0
-305 454 1063 1064 1065 1066 1067 1068 1069 1070 1071 1072 1073 1074 1075 1076 1077 1078 1079 1080 1081 1082 1083 1084 1085 1086 0
305 -454 1063 1064 1065 1066 1067 1068 1069 1070 1071 1072 1073 1074 1075 1076 1077 1078 1079 1080 1081 1082 1083 1084 1085 1086 0
-306 455 1063 1064 1065 1066 1067 1068 1069 1070 1071 1072 1073 1074 1075 1076 1077 1078 1079 1080 1081 1082 1083 1084 1085 1086 0
306 -455 1063 1064 1065 1066 1067 1068 1069 1070 1071 1072 1073 1074 1075 1076 1077 1078 1079 1080 1081 1082 1083 1084 1085 1086 0
-307 456 1063 1064 1065 1066 1067 1068 1069 1070 1071 1072 1073 1074 1075 1076 1077 1078 1079 1080 1081 1082 1083 1084 1085 1086 0
307 -456 1063 1064 1065 1066 1067 1068 1069 1070 1071 1072 1073 1074 1075 1076 1077 1078 1079 1080 1081 1082 1083 1084 1085 1086 0
-308 457 1063 1064 1065 1066 1067 1068 1069 1070 1071 1072 1073 1074 1075 1076 1077 1078 1079 1080 1081 1082 1083 1084 1085 1086 0
308 -457 1063 1064 1065 1066 1067 1068 1069 1070 1071 1072 1073 1074 1075 1076 1077 1078 1079 1080 1081 1082 1083 1084 1085 1086 0
-358 507 1087 1088 1089 1090 1091 1092 1093 1094 1095 1096 1097 1098 1099 1100 1101 1102 1103 1104 1105 1106 1107 1108 1109 1110 0
358 -507 1087 1088 1089 1090 1091 1092 1093 1094 1095 1096 1097 1098 1099 1100 1101 1102 1103 1104 1105 1106 1107 1108 1109 1110 0
-359 508 1087 1088 1089 1090 1091 1092 1093 1094 1095 1096 1097 1098 1099 1100 1101 1102 1103 1104 1105 1106 1107 1108 1109 1110 0
359 -508 1087 1088 1089 1090 1091 1092 1093 1094 1095 1096 1097 1098 1099 1100 1101 1102 1103 1104 1105 1106 1107 1108 1109 1110 0
-360 509 1087 1088 1089 1090 1091 1092 1093 1094 1095 1096 1097 1098 1099 1100 1101 1102 1103 1104 1105 1106 1107 1108 1109 1110 0
360 -509 1087 1088 1089 1090 1091 1092 1093 1094 1095 1096 1097 1098 1099 1100 1101 1102 1103 1104 1105 1106 1107 1108 1109 1110 0
-361 510 1087 1088 1089 1090 1091 1092 1093 1094 1095 1096 1097 1098 1099 1100 1101 1102 1103 1104 1105 1106 1107 1108 1109 1110 0
361 -510 1087 1088 1089 1090 1091 1092 1093 1094 1095 1096 1097 1098 1099 1100 1101 1102 1103 1104 1105 1106 1107 1108 1109 1110 0
-362 511 1087 1088 1089 1090 1091 1092 1093 1094 1095 1096 1097 1098 1099 1100 1101 1102 1103 1104 1105 1106 1107 1108 1109 1110 0
362 -511 1087 1088 1089 1090 1091 1092 1093 1094 1095 1096 1097 1098 1099 1100 1101 1102 1103 1104 1105 1106 1107 1108 1109 1110 0
-363 512 1087 1088 1089 1090 1091 1092 1093 1094 1095 1096 1097 1098 1099 1100 1101 1102 1103 1104 1105 1106 1107 1108 1109 1110 0
363 -512 1087 1088 1089 1090 1091 1092 1093 1094 1095 1096 1097 1098 1099 1100 1101 1102 1103 1104 1105 1106 1107 1108 1109 1110 0
-364 513 1087 1088 1089 1090 1091 1092 1093 1094 1095 1096 1097 1098 1099 1100 1101 1102 1103 1104 1105 1106 1107 1108 1109 1110 0
364 -513 1087 1088 1089 1090 1091 1092 1093 1094 1095 1096 1097 1098 1099 1100 1101 1102 1103 1104 1105 1106 1107 1108 1109 1110 0
-365 514 1087 1088 1089 1090 1091 1092 1093 1094 1095 1096 1097 1098 1099 1100 1101 1102 1103 1104 1105 1106 1107 1108 1109 1110 0
365 -514 1087 1088 1089 1090 1091 1092 1093 1094 1095 1096 1097 1098 1099 1100 1101 1102 1103 1104 1105 1106 1107 1108 1109 1110 0
-366 515 1087 1088 1089 1090 1091 1092 1093 1094 1095 1096 1097 1098 1099 1100 1101 1102 1103 1104 1105 1106 1107 1108 1109 1110 0
366 -515 1087 1088 1089 1090 1091 1092 1093 1094 1095 1096 1097 1098 1099 1100 1101 1102 1103 1104 1105 1106 1107 1108 1109 1110 0
-367 516 1087 1088 1089 1090 1091 1092 1093 1094 1095 1096 1097 1098 1099 1100 1101 1102 1103 1104 1105 1106 1107 1108 1109 1110 0
367 -516 1087 1088 1089 1090 1091 1092 1093 1094 1095 1096 1097 1098 1099 1100 1101 1102 1103 1104 1105 1106 1107 1108 1109 1110 0
-393 542 1111 1112 1113 1114 1115 1116 1117 1118 1119 1120 1121 1122 1123 1124 1125 1126 1127 1128 1129 1130 0
393 -542 1111 1112 1113 1114 1115 1116 1117 1118 1119 1120 1121 1122 1123 1124 1125 1126 1127 1128 1129 1130 0
-394 543 1111 1112 1113 1114 1115 1116 1117 1118 1119 1120 1121 1122 1123 1124 1125 1126 1127 1128 1129 1130 0
394 -543 1111 1112 1113 1114 1115 1116 1117 1118 1119 1120 1121 1122 1123 1124 1125 1126 1127 1128 1129 1130 0
-395 544 1111 1112 1113 1114 1115 1116 1117 1118 1119 1120 1121 1122 1123 1124 1125 1126 1127 1128 1129 1130 0
395 -544 1111 1112 1113 1114 1115 1116 1117 1118 1119 1120 1121 1122 1123 1124 1125 1126 1127 1128 1129 1130 0
-396 545 1111 1112 1113 1114 1115 1116 1117 1118 1119 1120 1121 1122 1123 1124 1125 1126 1127 1128 1129 1130 0
396 -545 1111 1112 1113 1114 1115 1116 1117 1118 1119 1120 1121 1122 1123 1124 1125 1126 1127 1128 1129 1130 0
-397 546 1111 1112 1113 1114 1115 1116 1117 1118 1119 1120 1121 1122 1123 1124 1125 1126 1127 1128 1129 1130 0
397 -546 1111 1112 1113 1114 1115 1116 1117 1118 1119 1120 1121 1122 1123 1124 1125 1126 1127 1128 1129 1130 0
-398 547 1111 1112 1113 1114 1115 1116 1117 1118 1119 1120 1121 1122 1123 1124 1125 1126 1127 1128 1129 1130 0
398 -547 1111 1112 1113 1114 1115 1116 1117 1118 1119 1120 1121 1122 1123 1124 1125 1126 1127 1128 1129 1130 0
-399 548 1111 1112 1113 1114 1115 1116 1117 1118 1119 1120 1121 1122 1123 1124 1125 1126 1127 1128 1129 1130 0
399 -548 1111 1112 1113 1114 1115 1116 1117 1118 1119 1120 1121 1122 1123 1124 1125 1126 1127 1128 1129 1130 0
-400 549 1111 1112 1113 1114 1115 1116 1117 1118 1119 1120 1121 1122 1123 1124 1125 1126 1127 1128 1129 1130 0
400 -549 1111 1112 1113 1114 1115 1116 1117 1118 1119 1120 1121 1122 1123 1124 1125 1126 1127 1128 1129 1130 0
-401 550 1111 1112 1113 1114 1115 1116 1117 1118 1119 1120 1121 1122 1123 1124 1125 1126 1127 1128 1129 1130 0
401 -550 1111 1112 1113 1114 1115 1116 1117 1118 1119 1120 1121 1122 1123 1124 1125 1126 1127 1128 1129 1130 0
-423 572 1131 1132 1133 1134 1135 1136 1137 1138 1139 1140 1141 1142 1143 1144 1145 1146 0
423 -572 1131 1132 1133 1134 1135 1136 1137 1138 1139 1140 1141 1142 1143 1144 1145 1146 0
-424 573 1131 1132 1133 1134 1135 1136 1137 1138 1139 1140 1141 1142 1143 1144 1145 1146 0
424 -573 1131 1132 1133 1134 1135 1136 1137 1138 1139 1140 1141 1142 1143 1144 1145 1146 0
-425 574 1131 1132 1133 1134 1135 1136 1137 1138 1139 1140 1141 1142 1143 1144 1145 1146 0
425 -574 1131 1132 1133 1134 1135 1136 1137 1138 1139 1140 1141 1142 1143 1144 1145 1146 0
-426 575 1131 1132 1133 1134 1135 1136 1137 1138 1139 1140 1141 1142 1143 1144 1145 1146 0
426 -575 1131 1132 1133 1134 1135 1136 1137 1138 1139 1140 1141 1142 1143 1144 1145 1146 0
-427 576 1131 1132 1133 1134 1135 1136 1137 1138 1139 1140 1141 1142 1143 1144 1145 1146 0
427 -576 1131 1132 1133 1134 1135 1136 1137 1138 1139 1140 1141 1142 1143 1144 1145 1146 0
-428 577 1131 1132 1133 1134 1135 1136 1137 1138 1139 1140 1141 1142 1143 1144 1145 1146 0
428 -577 1131 1132 1133 1134 1135 1136 1137 1138 1139 1140 1141 1142 1143 1144 1145 1146 0
-429 578 1131 1132 1133 1134 1135 1136 1137 1138 1139 1140 1141 1142 1143 1144 1145 1146 0
429 -578 1131 1132 1133 1134 1135 1136 1137 1138 1139 1140 1141 1142 1143 1144 1145 1146 0
-430 579 1131 1132 1133 1134 1135 1136 1137 1138 1139 1140 1141 1142 1143 1144 1145 1146 0
430 -579 1131 1132 1133 1134 1135 1136 1137 1138 1139 1140 1141 1142 1143 1144 1145 1146 0
-1147 462 0
-1147 597 0
-1147 611 0
-1147 603 0
-1147 -448 -454 0
-1148 462 0
-1148 598 0
-1148 611 0
-1148 603 0
-1148 -449 -454 0
-1149 462 0
-1149 599 0
-1149 611 0
-1149 603 0
-1149 -450 -454 0
-1150 462 0
-1150 600 0
-1150 611 0
-1150 603 0
-1150 -451 -454 0
-1151 462 0
-1151 601 0
-1151 611 0
-1151 603 0
-1151 -452 -454 0
-1152 462 0
-1152 602 0
-1152 611 0
-1152 603 0
-1152 -453 -454 0
-1153 462 0
-1153 597 0
-1153 611 0
-1153 507 0
-1153 -516 0
-1153 -667 0
-1153 -513 604 0
-1153 -513 -448 -455 0
-1153 -514 605 0
-1153 -514 -448 -456 0
-1153 -515 606 0
-1153 -515 -448 -457 0
-1154 462 0
-1154 598 0
-1154 611 0
-1154 508 0
-1154 -516 0
-1154 -667 0
-1154 -513 604 0
-1154 -513 -449 -455 0
-1154 -514 605 0
-1154 -514 -449 -456 0
-1154 -515 606 0
-1154 -515 -449 -457 0
-1155 462 0
-1155 599 0
-1155 611 0
-1155 509 0
-1155 -516 0
-1155 -667 0
-1155 -513 604 0
-1155 -513 -450 -455 0
-1155 -514 605 0
-1155 -514 -450 -456 0
-1155 -515 606 0
-1155 -515 -450 -457 0
-1156 462 0
-1156 600 0
-1156 611 0
-1156 510 0
-1156 -516 0
-1156 -667 0
-1156 -513 604 0
-1156 -513 -451 -455 0
-1156 -514 605 0
-1156 -514 -451 -456 0
-1156 -515 606 0
-1156 -515 -451 -457 0
-1157 462 0
-1157 601 0
-1157 611 0
-1157 511 0
-1157 -516 0
-1157 -667 0
-1157 -513 604 0
-1157 -513 -452 -455 0
-1157 -514 605 0
-1157 -514 -452 -456 0
-1157 -515 606 0
-1157 -515 -452 -457 0
-1158 462 0
-1158 602 0
-1158 611 0
-1158 512 0
-1158 -516 0
-1158 -667 0
-1158 -513 604 0
-1158 -513 -453 -455 0
-1158 -514 605 0
-1158 -514 -453 -456 0
-1158 -515 606 0
-1158 -515 -453 -457 0
-1159 462 0
-1159 597 0
-1159 611 0
-1159 542 0
-1159 -550 0
-1159 -701 0
-1159 -547 604 0
-1159 -547 -448 -455 0
-1159 -548 605 0
-1159 -548 -448 -456 0
-1159 -549 606 0
-1159 -549 -448 -457 0
-1160 462 0
-1160 598 0
-1160 611 0
-1160 542 543 0
-1160 -550 0
-1160 -701 0
-1160 -547 604 0
-1160 -547 -449 -455 0
-1160 -548 605 0
-1160 -548 -449 -456 0
-1160 -549 606 0
-1160 -549 -449 -457 0
-1161 462 0
-1161 599 0
-1161 611 0
-1161 543 544 0
-1161 -550 0
-1161 -701 0
-1161 -547 604 0
-1161 -547 -450 -455 0
-1161 -548 605 0
-1161 -548 -450 -456 0
-1161 -549 606 0
-1161 -549 -450 -457 0
-1162 462 0
-1162 600 0
-1162 611 0
-1162 544 545 0
-1162 -550 0
-1162 -701 0
-1162 -547 604 0
-1162 -547 -451 -455 0
-1162 -548 605 0
-1162 -548 -451 -456 0
-1162 -549 606 0
-1162 -549 -451 -457 0
-1163 462 0
-1163 601 0
-1163 611 0
-1163 545 546 0
-1163 -550 0
-1163 -701 0
-1163 -547 604 0
-1163 -547 -452 -455 0
-1163 -548 605 0
-1163 -548 -452 -456 0
-1163 -549 606 0
-1163 -549 -452 -457 0
-1164 462 0
-1164 602 0
-1164 611 0
-1164 546 0
-1164 -550 0
-1164 -701 0
-1164 -547 604 0
-1164 -547 -453 -455 0
-1164 -548 605 0
-1164 -548 -453 -456 0
-1164 -549 606 0
-1164 -549 -453 -457 0
-1165 462 0
-1165 597 0
-1165 611 0
-1165 572 0
-1165 -579 0
-1165 -730 0
-1165 -576 604 0
-1165 -576 -448 -455 0
-1165 -577 605 0
-1165 -577 -448 -456 0
-1165 -578 606 0
-1165 -578 -448 -457 0
-1166 462 0
-1166 598 0
-1166 611 0
-1166 572 573 0
-1166 -579 0
-1166 -730 0
-1166 -576 604 0
-1166 -576 -449 -455 0
-1166 -577 605 0
-1166 -577 -449 -456 0
-1166 -578 606 0
-1166 -578 -449 -457 0
-1167 462 0
-1167 599 0
-1167 611 0
-1167 572 573 574 0
-1167 -579 0
-1167 -730 0
-1167 -576 604 0
-1167 -576 -450 -455 0
-1167 -577 605 0
-1167 -577 -450 -456 0
-1167 -578 606 0
-1167 -578 -450 -457 0
-1168 462 0
-1168 600 0
-1168 611 0
-1168 573 574 575 0
-1168 -579 0
-1168 -730 0
-1168 -576 604 0
-1168 -576 -451 -455 0
-1168 -577 605 0
-1168 -577 -451 -456 0
-1168 -578 606 0
-1168 -578 -451 -457 0
-1169 462 0
-1169 601 0
-1169 611 0
-1169 574 575 0
-1169 -579 0
-1169 -730 0
-1169 -576 604 0
-1169 -576 -452 -455 0
-1169 -577 605 0
-1169 -577 -452 -456 0
-1169 -578 606 0
-1169 -578 -452 -457 0
-1170 462 0
-1170 602 0
-1170 611 0
-1170 575 0
-1170 -579 0
-1170 -730 0
-1170 -576 604 0
-1170 -576 -453 -455 0
-1170 -577 605 0
-1170 -577 -453 -456 0
-1170 -578 606 0
-1170 -578 -453 -457 0
-1171 518 0
-1171 656 0
-1171 667 0
-1171 662 0
-1171 -507 -513 0
-1172 518 0
-1172 657 0
-1172 667 0
-1172 662 0
-1172 -508 -513 0
-1173 518 0
-1173 658 0
-1173 667 0
-1173 662 0
-1173 -509 -513 0
-1174 518 0
-1174 659 0
-1174 667 0
-1174 662 0
-1174 -510 -513 0
-1175 518 0
-1175 660 0
-1175 667 0
-1175 662 0
-1175 -511 -513 0
-1176 518 0
-1176 661 0
-1176 667 0
-1176 662 0
-1176 -512 -513 0
-1177 518 0
-1177 656 0
-1177 667 0
-1177 448 0
-1177 -457 0
-1177 -611 0
-1177 -454 663 0
-1177 -454 -507 -514 0
-1177 -455 664 0
-1177 -455 -507 -515 0
-1177 -456 665 0
-1177 -456 -507 -516 0
-1178 518 0
-1178 657 0
-1178 667 0
-1178 449 0
-1178 -457 0
-1178 -611 0
-1178 -454 663 0
-1178 -454 -508 -514 0
-1178 -455 664 0
-1178 -455 -508 -515 0
-1178 -456 665 0
-1178 -456 -508 -516 0
-1179 518 0
-1179 658 0
-1179 667 0
-1179 450 0
-1179 -457 0
-1179 -611 0
-1179 -454 663 0
-1179 -454 -509 -514 0
-1179 -455 664 0
-1179 -455 -509 -515 0
-1179 -456 665 0
-1179 -456 -509 -516 0
-1180 518 0
-1180 659 0
-1180 667 0
-1180 451 0
-1180 -457 0
-1180 -611 0
-1180 -454 663 0
-1180 -454 -510 -514 0
-1180 -455 664 0
-1180 -455 -510 -515 0
-1180 -456 665 0
-1180 -456 -510 -516 0
-1181 518 0
-1181 660 0
-1181 667 0
-1181 452 0
-1181 -457 0
-1181 -611 0
-1181 -454 663 0
-1181 -454 -511 -514 0
-1181 -455 664 0
-1181 -455 -511 -515 0
-1181 -456 665 0
-1181 -456 -511 -516 0
-1182 518 0
-1182 661 0
-1182 667 0
-1182 453 0
-1182 -457 0
-1182 -611 0
-1182 -454 663 0
-1182 -454 -512 -514 0
-1182 -455 664 0
-1182 -455 -512 -515 0
-1182 -456 665 0
-1182 -456 -512 -516 0
-1183 518 0
-1183 656 0
-1183 667 0
-1183 542 0
-1183 -550 0
-1183 -701 0
-1183 -547 663 0
-1183 -547 -507 -514 0
-1183 -548 664 0
-1183 -548 -507 -515 0
-1183 -549 665 0
-1183 -549 -507 -516 0
-1184 518 0
-1184 657 0
-1184 667 0
-1184 542 543 0
-1184 -550 0
-1184 -701 0
-1184 -547 663 0
-1184 -547 -508 -514 0
-1184 -548 664 0
-1184 -548 -508 -515 0
-1184 -549 665 0
-1184 -549 -508 -516 0
-1185 518 0
-1185 658 0
-1185 667 0
-1185 543 544 0
-1185 -550 0
-1185 -701 0
-1185 -547 663 0
-1185 -547 -509 -514 0
-1185 -548 664 0
-1185 -548 -509 -515 0
-1185 -549 665 0
-1185 -549 -509 -516 0
-1186 518 0
-1186 659 0
-1186 667 0
-1186 544 545 0
-1186 -550 0
-1186 -701 0
-1186 -547 663 0
-1186 -547 -510 -514 0
-1186 -548 664 0
-1186 -548 -510 -515 0
-1186 -549 665 0
-1186 -549 -510 -516 0
-1187 518 0
-1187 660 0
-1187 667 0
-1187 545 546 0
-1187 -550 0
-1187 -701 0
-1187 -547 663 0
-1187 -547 -511 -514 0
-1187 -548 664 0
-1187 -548 -511 -515 0
-1187 -549 665 0
-1187 -549 -511 -516 0
-1188 518 0
-1188 661 0
-1188 667 0
-1188 546 0
-1188 -550 0
-1188 -701 0
-1188 -547 663 0
-1188 -547 -512 -514 0
-1188 -548 664 0
-1188 -548 -512 -515 0
-1188 -549 665 0
-1188 -549 -512 -516 0
-1189 518 0
-1189 656 0
-1189 667 0
-1189 572 0
-1189 -579 0
-1189 -730 0
-1189 -576 663 0
-1189 -576 -507 -514 0
-1189 -577 664 0
-1189 -577 -507 -515 0
-1189 -578 665 0
-1189 -578 -507 -516 0
-1190 518 0
-1190 657 0
-1190 667 0
-1190 572 573 0
-1190 -579 0
-1190 -730 0
-1190 -576 663 0
-1190 -576 -508 -514 0
-1190 -577 664 0
-1190 -577 -508 -515 0
-1190 -578 665 0
-1190 -578 -508 -516 0
-1191 518 0
-1191 658 0
-1191 667 0
-1191 572 573 574 0
-1191 -579 0
-1191 -730 0
-1191 -576 663 0
-1191 -576 -509 -514 0
-1191 -577 664 0
-1191 -577 -509 -515 0
-1191 -578 665 0
-1191 -578 -509 -516 0
-1192 518 0
-1192 659 0
-1192 667 0
-1192 573 574 575 0
-1192 -579 0
-1192 -730 0
-1192 -576 663 0
-1192 -576 -510 -514 0
-1192 -577 664 0
-1192 -577 -510 -515 0
-1192 -578 665 0
-1192 -578 -510 -516 0
-1193 518 0
-1193 660 0
-1193 667 0
-1193 574 575 0
-1193 -579 0
-1193 -730 0
-1193 -576 663 0
-1193 -576 -511 -514 0
-1193 -577 664 0
-1193 -577 -511 -515 0
-1193 -578 665 0
-1193 -578 -511 -516 0
-1194 518 0
-1194 661 0
-1194 667 0
-1194 575 0
-1194 -579 0
-1194 -730 0
-1194 -576 663 0
-1194 -576 -512 -514 0
-1194 -577 664 0
-1194 -577 -512 -515 0
-1194 -578 665 0
-1194 -578 -512 -516 0
-1195 552 0
-1195 691 0
-1195 701 0
-1195 696 0
-1195 -542 -547 0
-1196 552 0
-1196 692 0
-1196 701 0
-1196 696 0
-1196 -543 -547 0
-1197 552 0
-1197 693 0
-1197 701 0
-1197 696 0
-1197 -544 -547 0
-1198 552 0
-1198 694 0
-1198 701 0
-1198 696 0
-1198 -545 -547 0
-1199 552 0
-1199 695 0
-1199 701 0
-1199 696 0
-1199 -546 -547 0
-1200 552 0
-1200 691 0
-1200 701 0
-1200 448 449 0
-1200 -457 0
-1200 -611 0
-1200 -454 697 0
-1200 -454 -542 -548 0
-1200 -455 698 0
-1200 -455 -542 -549 0
-1200 -456 699 0
-1200 -456 -542 -550 0
-1201 552 0
-1201 692 0
-1201 701 0
-1201 449 450 0
-1201 -457 0
-1201 -611 0
-1201 -454 697 0
-1201 -454 -543 -548 0
-1201 -455 698 0
-1201 -455 -543 -549 0
-1201 -456 699 0
-1201 -456 -543 -550 0
-1202 552 0
-1202 693 0
-1202 701 0
-1202 450 451 0
-1202 -457 0
-1202 -611 0
-1202 -454 697 0
-1202 -454 -544 -548 0
-1202 -455 698 0
-1202 -455 -544 -549 0
-1202 -456 699 0
-1202 -456 -544 -550 0
-1203 552 0
-1203 694 0
-1203 701 0
-1203 451 452 0
-1203 -457 0
-1203 -611 0
-1203 -454 697 0
-1203 -454 -545 -548 0
-1203 -455 698 0
-1203 -455 -545 -549 0
-1203 -456 699 0
-1203 -456 -545 -550 0
-1204 552 0
-1204 695 0
-1204 701 0
-1204 452 453 0
-1204 -457 0
-1204 -611 0
-1204 -454 697 0
-1204 -454 -546 -548 0
-1204 -455 698 0
-1204 -455 -546 -549 0
-1204 -456 699 0
-1204 -456 -546 -550 0
-1205 552 0
-1205 691 0
-1205 701 0
-1205 507 508 0
-1205 -516 0
-1205 -667 0
-1205 -513 697 0
-1205 -513 -542 -548 0
-1205 -514 698 0
-1205 -514 -542 -549 0
-1205 -515 699 0
-1205 -515 -542 -550 0
-1206 552 0
-1206 692 0
-1206 701 0
-1206 508 509 0
-1206 -516 0
-1206 -667 0
-1206 -513 697 0
-1206 -513 -543 -548 0
-1206 -514 698 0
-1206 -514 -543 -549 0
-1206 -515 699 0
-1206 -515 -543 -550 0
-1207 552 0
-1207 693 0
-1207 701 0
-1207 509 510 0
-1207 -516 0
-1207 -667 0
-1207 -513 697 0
-1207 -513 -544 -548 0
-1207 -514 698 0
-1207 -514 -544 -549 0
-1207 -515 699 0
-1207 -515 -544 -550 0
-1208 552 0
-1208 694 0
-1208 701 0
-1208 510 511 0
-1208 -516 0
-1208 -667 0
-1208 -513 697 0
-1208 -513 -545 -548 0
-1208 -514 698 0
-1208 -514 -545 -549 0
-1208 -515 699 0
-1208 -515 -545 -550 0
-1209 552 0
-1209 695 0
-1209 701 0
-1209 511 512 0
-1209 -516 0
-1209 -667 0
-1209 -513 697 0
-1209 -513 -546 -548 0
-1209 -514 698 0
-1209 -514 -546 -549 0
-1209 -515 699 0
-1209 -515 -546 -550 0
-1210 552 0
-1210 691 0
-1210 701 0
-1210 572 573 0
-1210 -579 0
-1210 -730 0
-1210 -576 697 0
-1210 -576 -542 -548 0
-1210 -577 698 0
-1210 -577 -542 -549 0
-1210 -578 699 0
-1210 -578 -542 -550 0
-1211 552 0
-1211 692 0
-1211 701 0
-1211 572 573 574 0
-1211 -579 0
-1211 -730 0
-1211 -576 697 0
-1211 -576 -543 -548 0
-1211 -577 698 0
-1211 -577 -543 -549 0
-1211 -578 699 0
-1211 -578 -543 -550 0
-1212 552 0
-1212 693 0
-1212 701 0
-1212 572 573 574 575 0
-1212 -579 0
-1212 -730 0
-1212 -576 697 0
-1212 -576 -544 -548 0
-1212 -577 698 0
-1212 -577 -544 -549 0
-1212 -578 699 0
-1212 -578 -544 -550 0
-1213 552 0
-1213 694 0
-1213 701 0
-1213 573 574 575 0
-1213 -579 0
-1213 -730 0
-1213 -576 697 0
-1213 -576 -545 -548 0
-1213 -577 698 0
-1213 -577 -545 -549 0
-1213 -578 699 0
-1213 -578 -545 -550 0
-1214 552 0
-1214 695 0
-1214 701 0
-1214 574 575 0
-1214 -579 0
-1214 -730 0
-1214 -576 697 0
-1214 -576 -546 -548 0
-1214 -577 698 0
-1214 -577 -546 -549 0
-1214 -578 699 0
-1214 -578 -546 -550 0
-1215 581 0
-1215 721 0
-1215 730 0
-1215 725 0
-1215 -572 -576 0
-1216 581 0
-1216 722 0
-1216 730 0
-1216 725 0
-1216 -573 -576 0
-1217 581 0
-1217 723 0
-1217 730 0
-1217 725 0
-1217 -574 -576 0
-1218 581 0
-1218 724 0
-1218 730 0
-1218 725 0
-1218 -575 -576 0
-1219 581 0
-1219 721 0
-1219 730 0
-1219 448 449 450 0
-1219 -457 0
-1219 -611 0
-1219 -454 726 0
-1219 -454 -572 -577 0
-1219 -455 727 0
-1219 -455 -572 -578 0
-1219 -456 728 0
-1219 -456 -572 -579 0
-1220 581 0
-1220 722 0
-1220 730 0
-1220 449 450 451 0
-1220 -457 0
-1220 -611 0
-1220 -454 726 0
-1220 -454 -573 -577 0
-1220 -455 727 0
-1220 -455 -573 -578 0
-1220 -456 728 0
-1220 -456 -573 -579 0
-1221 581 0
-1221 723 0
-1221 730 0
-1221 450 451 452 0
-1221 -457 0
-1221 -611 0
-1221 -454 726 0
-1221 -454 -574 -577 0
-1221 -455 727 0
-1221 -455 -574 -578 0
-1221 -456 728 0
-1221 -456 -574 -579 0
-1222 581 0
-1222 724 0
-1222 730 0
-1222 451 452 453 0
-1222 -457 0
-1222 -611 0
-1222 -454 726 0
-1222 -454 -575 -577 0
-1222 -455 727 0
-1222 -455 -575 -578 0
-1222 -456 728 0
-1222 -456 -575 -579 0
-1223 581 0
-1223 721 0
-1223 730 0
-1223 507 508 509 0
-1223 -516 0
-1223 -667 0
-1223 -513 726 0
-1223 -513 -572 -577 0
-1223 -514 727 0
-1223 -514 -572 -578 0
-1223 -515 728 0
-1223 -515 -572 -579 0
-1224 581 0
-1224 722 0
-1224 730 0
-1224 508 509 510 0
-1224 -516 0
-1224 -667 0
-1224 -513 726 0
-1224 -513 -573 -577 0
-1224 -514 727 0
-1224 -514 -573 -578 0
-1224 -515 728 0
-1224 -515 -573 -579 0
-1225 581 0
-1225 723 0
-1225 730 0
-1225 509 510 511 0
-1225 -516 0
-1225 -667 0
-1225 -513 726 0
-1225 -513 -574 -577 0
-1225 -514 727 0
-1225 -514 -574 -578 0
-1225 -515 728 0
-1225 -515 -574 -579 0
-1226 581 0
-1226 724 0
-1226 730 0
-1226 510 511 512 0
-1226 -516 0
-1226 -667 0
-1226 -513 726 0
-1226 -513 -575 -577 0
-1226 -514 727 0
-1226 -514 -575 -578 0
-1226 -515 728 0
-1226 -515 -575 -579 0
-1227 581 0
-1227 721 0
-1227 730 0
-1227 542 543 544 0
-1227 -550 0
-1227 -701 0
-1227 -547 726 0
-1227 -547 -572 -577 0
-1227 -548 727 0
-1227 -548 -572 -578 0
-1227 -549 728 0
-1227 -549 -572 -579 0
-1228 581 0
-1228 722 0
-1228 730 0
-1228 542 543 544 545 0
-1228 -550 0
-1228 -701 0
-1228 -547 726 0
-1228 -547 -573 -577 0
-1228 -548 727 0
-1228 -548 -573 -578 0
-1228 -549 728 0
-1228 -549 -573 -579 0
-1229 581 0
-1229 723 0
-1229 730 0
-1229 543 544 545 546 0
-1229 -550 0
-1229 -701 0
-1229 -547 726 0
-1229 -547 -574 -577 0
-1229 -548 727 0
-1229 -548 -574 -578 0
-1229 -549 728 0
-1229 -549 -574 -579 0
-1230 581 0
-1230 724 0
-1230 730 0
-1230 544 545 546 0
-1230 -550 0
-1230 -701 0
-1230 -547 726 0
-1230 -547 -575 -577 0
-1230 -548 727 0
-1230 -548 -575 -578 0
-1230 -549 728 0
-1230 -549 -575 -579 0
1147 1148 1149 1150 1151 1152 1153 1154 1155 1156 1157 1158 1159 1160 1161 1162 1163 1164 1165 1166 1167 1168 1169 1170 1171 1172 1173 1174 1175 1176 1177 1178 1179 1180 1181 1182 1183 1184 1185 1186 1187 1188 1189 1190 1191 1192 1193 1194 1195 1196 1197 1198 1199 1200 1201 1202 1203 1204 1205 1206 1207 1208 1209 1210 1211 1212 1213 1214 1215 1216 1217 1218 1219 1220 1221 1222 1223 1224 1225 1226 1227 1228 1229 1230 0
-1147 -1148 0
-1147 -1149 0
-1147 -1150 0
-1147 -1151 0
-1147 -1152 0
-1147 -1153 0
-1147 -1154 0
-1147 -1155 0
-1147 -1156 0
-1147 -1157 0
-1147 -1158 0
-1147 -1159 0
-1147 -1160 0
-1147 -1161 0
-1147 -1162 0
-1147 -1163 0
-1147 -1164 0
-1147 -1165 0
-1147 -1166 0
-1147 -1167 0
-1147 -1168 0
-1147 -1169 0
-1147 -1170 0
-1147 -1171 0
-1147 -1172 0
-1147 -1173 0
-1147 -1174 0
-1147 -1175 0
-1147 -1176 0
-1147 -1177 0
-1147 -1178 0
-1147 -1179 0
-1147 -1180 0
-1147 -1181 0
-1147 -1182 0
-1147 -1183 0
-1147 -1184 0
-1147 -1185 0
-1147 -1186 0
-1147 -1187 0
-1147 -1188 0
-1147 -1189 0
-1147 -1190 0
-1147 -1191 0
-1147 -1192 0
-1147 -1193 0
-1147 -1194 0
-1147 -1195 0
-1147 -1196 0
-1147 -1197 0
-1147 -1198 0
-1147 -1199 0
-1147 -1200 0
-1147 -1201 0
-1147 -1202 0
-1147 -1203 0
-1147 -1204 0
-1147 -1205 0
-1147 -1206 0
-1147 -1207 0
-1147 -1208 0
-1147 -1209 0
-1147 -1210 0
-1147 -1211 0
-1147 -1212 0
-1147 -1213 0
-1147 -1214 0
-1147 -1215 0
-1147 -1216 0
-1147 -1217 0
-1147 -1218 0
-1147 -1219 0
-1147 -1220 0
-1147 -1221 0
-1147 -1222 0
-1147 -1223 0
-1147 -1224 0
-1147 -1225 0
-1147 -1226 0
-1147 -1227 0
-1147 -1228 0
-1147 -1229 0
-1147 -1230 0
-1148 -1149 0
-1148 -1150 0
-1148 -1151 0
-1148 -1152 0
-1148 -1153 0
-1148 -1154 0
-1148 -1155 0
-1148 -1156 0
-1148 -1157 0
-1148 -1158 0
-1148 -1159 0
-1148 -1160 0
-1148 -1161 0
-1148 -1162 0
-1148 -1163 0
-1148 -1164 0
-1148 -1165 0
-1148 -1166 0
-1148 -1167 0
-1148 -1168 0
-1148 -1169 0
-1148 -1170 0
-1148 -1171 0
-1148 -1172 0
-1148 -1173 0
-1148 -1174 0
-1148 -1175 0
-1148 -1176 0
-1148 -1177 0
-1148 -1178 0
-1148 -1179 0
-1148 -1180 0
-1148 -1181 0
-1148 -1182 0
-1148 -1183 0
-1148 -1184 0
-1148 -1185 0
-1148 -1186 0
-1148 -1187 0
-1148 -1188 0
-1148 -1189 0
-1148 -1190 0
-1148 -1191 0
-1148 -1192 0
-1148 -1193 0
-1148 -1194 0
-1148 -1195 0
-1148 -1196 0
-1148 -1197 0
-1148 -1198 0
-1148 -1199 0
-1148 -1200 0
-1148 -1201 0
-1148 -1202 0
-1148 -1203 0
-1148 -1204 0
-1148 -1205 0
-1148 -1206 0
-1148 -1207 0
-1148 -1208 0
-1148 -1209 0
-1148 -1210 0
-1148 -1211 0
-1148 -1212 0
-1148 -1213 0
-1148 -1214 0
-1148 -1215 0
-1148 -1216 0
-1148 -1217 0
-1148 -1218 0
-1148 -1219 0
-1148 -1220 0
-1148 -1221 0
-1148 -1222 0
-1148 -1223 0
-1148 -1224 0
-1148 -1225 0
-1148 -1226 0
-1148 -1227 0
-1148 -1228 0
-1148 -1229 0
-1148 -1230 0
-1149 -1150 0
-1149 -1151 0
-1149 -1152 0
-1149 -1153 0
-1149 -1154 0
-1149 -1155 0
-1149 -1156 0
-1149 -1157 0
-1149 -1158 0
-1149 -1159 0
-1149 -1160 0
-1149 -1161 0
-1149 -1162 0
-1149 -1163 0
-1149 -1164 0
-1149 -1165 0
-1149 -1166 0
-1149 -1167 0
-1149 -1168 0
-1149 -1169 0
-1149 -1170 0
-1149 -1171 0
-1149 -1172 0
-1149 -1173 0
-1149 -1174 0
-1149 -1175 0
-1149 -1176 0
-1149 -1177 0
-1149 -1178 0
-1149 -1179 0
-1149 -1180 0
-1149 -1181 0
-1149 -1182 0
-1149 -1183 0
-1149 -1184 0
-1149 -1185 0
-1149 -1186 0
-1149 -1187 0
-1149 -1188 0
-1149 -1189 0
-1149 -1190 0
-1149 -1191 0
-1149 -1192 0
-1149 -1193 0
-1149 -1194 0
-1149 -1195 0
-1149 -1196 0
-1149 -1197 0
-1149 -1198 0
-1149 -1199 0
-1149 -1200 0
-1149 -1201 0
-1149 -1202 0
-1149 -1203 0
-1149 -1204 0
-1149 -1205 0
-1149 -1206 0
-1149 -1207 0
-1149 -1208 0
-1149 -1209 0
-1149 -1210 0
-1149 -1211 0
-1149 -1212 0
-1149 -1213 0
-1149 -1214 0
-1149 -1215 0
-1149 -1216 0
-1149 -1217 0
-1149 -1218 0
-1149 -1219 0
-1149 -1220 0
-1149 -1221 0
-1149 -1222 0
-1149 -1223 0
-1149 -1224 0
-1149 -1225 0
-1149 -1226 0
-1149 -1227 0
-1149 -1228 0
-1149 -1229 0
-1149 -1230 0
-1150 -1151 0
-1150 -1152 0
-1150 -1153 0
-1150 -1154 0
-1150 -1155 0
-1150 -1156 0
-1150 -1157 0
-1150 -1158 0
-1150 -1159 0
-1150 -1160 0
-1150 -1161 0
-1150 -1162 0
-1150 -1163 0
-1150 -1164 0
-1150 -1165 0
-1150 -1166 0
-1150 -1167 0
-1150 -1168 0
-1150 -1169 0
-1150 -1170 0
-1150 -1171 0
-1150 -1172 0
-1150 -1173 0
-1150 -1174 0
-1150 -1175 0
-1150 -1176 0
-1150 -1177 0
-1150 -1178 0
-1150 -1179 0
-1150 -1180 0
-1150 -1181 0
-1150 -1182 0
-1150 -1183 0
-1150 -1184 0
-1150 -1185 0
-1150 -1186 0
-1150 -1187 0
-1150 -1188 0
-1150 -1189 0
-1150 -1190 0
-1150 -1191 0
-1150 -1192 0
-1150 -1193 0
-1150 -1194 0
-1150 -1195 0
-1150 -1196 0
-1150 -1197 0
-1150 -1198 0
-1150 -1199 0
-1150 -1200 0
-1150 -1201 0
-1150 -1202 0
-1150 -1203 0
-1150 -1204 0
-1150 -1205 0
-1150 -1206 0
-1150 -1207 0
-1150 -1208 0
-1150 -1209 0
-1150 -1210 0
-1150 -1211 0
-1150 -1212 0
-1150 -1213 0
-1150 -1214 0
-1150 -1215 0
-1150 -1216 0
-1150 -1217 0
-1150 -1218 0
-1150 -1219 0
-1150 -1220 0
-1150 -1221 0
-1150 -1222 0
-1150 -1223 0
-1150 -1224 0
-1150 -1225 0
-1150 -1226 0
-1150 -1227 0
-1150 -1228 0
-1150 -1229 0
-1150 -1230 0
-1151 -1152 0
-1151 -1153 0
-1151 -1154 0
-1151 -1155 0
-1151 -1156 0
-1151 -1157 0
-1151 -1158 0
-1151 -1159 0
-1151 -1160 0
-1151 -1161 0
-1151 -1162 0
-1151 -1163 0
-1151 -1164 0
-1151 -1165 0
-1151 -1166 0
-1151 -1167 0
-1151 -1168 0
-1151 -1169 0
-1151 -1170 0
-1151 -1171 0
-1151 -1172 0
-1151 -1173 0
-1151 -1174 0
-1151 -1175 0
-1151 -1176 0
-1151 -1177 0
-1151 -1178 0
-1151 -1179 0
-1151 -1180 0
-1151 -1181 0
-1151 -1182 0
-1151 -1183 0
-1151 -1184 0
-1151 -1185 0
-1151 -1186 0
-1151 -1187 0
-1151 -1188 0
-1151 -1189 0
-1151 -1190 0
-1151 -1191 0
-1151 -1192 0
-1151 -1193 0
-1151 -1194 0
-1151 -1195 0
-1151 -1196 0
-1151 -1197 0
-1151 -1198 0
-1151 -1199 0
-1151 -1200 0
-1151 -1201 0
-1151 -1202 0
-1151 -1203 0
-1151 -1204 0
-1151 -1205 0
-1151 -1206 0
-1151 -1207 0
-1151 -1208 0
-1151 -1209 0
-1151 -1210 0
-1151 -1211 0
-1151 -1212 0
-1151 -1213 0
-1151 -1214 0
-1151 -1215 0
-1151 -1216 0
-1151 -1217 0
-1151 -1218 0
-1151 -1219 0
-1151 -1220 0
-1151 -1221 0
-1151 -1222 0
-1151 -1223 0
-1151 -1224 0
-1151 -1225 0
-1151 -1226 0
-1151 -1227 0
-1151 -1228 0
-1151 -1229 0
-1151 -1230 0
-1152 -1153 0
-1152 -1154 0
-1152 -1155 0
-1152 -1156 0
-1152 -1157 0
-1152 -1158 0
-1152 -1159 0
-1152 -1160 0
-1152 -1161 0
-1152 -1162 0
-1152 -1163 0
-1152 -1164 0
-1152 -1165 0
-1152 -1166 0
-1152 -1167 0
-1152 -1168 0
-1152 -1169 0
-1152 -1170 0
-1152 -1171 0
-1152 -1172 0
-1152 -1173 0
-1152 -1174 0
-1152 -1175 0
-1152 -1176 0
-1152 -1177 0
-1152 -1178 0
-1152 -1179 0
-1152 -1180 0
-1152 -1181 0
-1152 -1182 0
-1152 -1183 0
-1152 -1184 0
-1152 -1185 0
-1152 -1186 0
-1152 -1187 0
-1152 -1188 0
-1152 -1189 0
-1152 -1190 0
-1152 -1191 0
-1152 -1192 0
-1152 -1193 0
-1152 -1194 0
-1152 -1195 0
-1152 -1196 0
-1152 -1197 0
-1152 -1198 0
-1152 -1199 0
-1152 -1200 0
-1152 -1201 0
-1152 -1202 0
-1152 -1203 0
-1152 -1204 0
-1152 -1205 0
-1152 -1206 0
-1152 -1207 0
-1152 -1208 0
-1152 -1209 0
-1152 -1210 0
-1152 -1211 0
-1152 -1212 0
-1152 -1213 0
-1152 -1214 0
-1152 -1215 0
-1152 -1216 0
-1152 -1217 0
-1152 -1218 0
-1152 -1219 0
-1152 -1220 0
-1152 -1221 0
-1152 -1222 0
-1152 -1223 0
-1152 -1224 0
-1152 -1225 0
-1152 -1226 0
-1152 -1227 0
-1152 -1228 0
-1152 -1229 0
-1152 -1230 0
-1153 -1154 0
-1153 -1155 0
-1153 -1156 0
-1153 -1157 0
-1153 -1158 0
-1153 -1159 0
-1153 -1160 0
-1153 -1161 0
-1153 -1162 0
-1153 -1163 0
-1153 -1164 0
-1153 -1165 0
-1153 -1166 0
-1153 -1167 0
-1153 -1168 0
-1153 -1169 0
-1153 -1170 0
-1153 -1171 0
-1153 -1172 0
-1153 -1173 0
-1153 -1174 0
-1153 -1175 0
-1153 -1176 0
-1153 -1177 0
-1153 -1178 0
-1153 -1179 0
-1153 -1180 0
-1153 -1181 0
-1153 -1182 0
-1153 -1183 0
-1153 -1184 0
-1153 -1185 0
-1153 -1186 0
-1153 -1187 0
-1153 -1188 0
-1153 -1189 0
-1153 -1190 0
-1153 -1191 0
-1153 -1192 0
-1153 -1193 0
-1153 -1194 0
-1153 -1195 0
-1153 -1196 0
-1153 -1197 0
-1153 -1198 0
-1153 -1199 0
-1153 -1200 0
-1153 -1201 0
-1153 -1202 0
-1153 -1203 0
-1153 -1204 0
-1153 -1205 0
-1153 -1206 0
-1153 -1207 0
-1153 -1208 0
-1153 -1209 0
-1153 -1210 0
-1153 -1211 0
-1153 -1212 0
-1153 -1213 0
-1153 -1214 0
-1153 -1215 0
-1153 -1216 0
-1153 -1217 0
-1153 -1218 0
-1153 -1219 0
-1153 -1220 0
-1153 -1221 0
-1153 -1222 0
-1153 -1223 0
-1153 -1224 0
-1153 -1225 0
-1153 -1226 0
-1153 -1227 0
-1153 -1228 0
-1153 -1229 0
-1153 -1230 0
-1154 -1155 0
-1154 -1156 0
-1154 -1157 0
-1154 -1158 0
-1154 -1159 0
-1154 -1160 0
-1154 -1161 0
-1154 -1162 0
-1154 -1163 0
-1154 -1164 0
-1154 -1165 0
-1154 -1166 0
-1154 -1167 0
-1154 -1168 0
-1154 -1169 0
-1154 -1170 0
-1154 -1171 0
-1154 -1172 0
-1154 -1173 0
-1154 -1174 0
-1154 -1175 0
-1154 -1176 0
-1154 -1177 0
-1154 -1178 0
-1154 -1179 0
-1154 -1180 0
-1154 -1181 0
-1154 -1182 0
-1154 -1183 0
-1154 -1184 0
-1154 -1185 0
-1154 -1186 0
-1154 -1187 0
-1154 -1188 0
-1154 -1189 0
-1154 -1190 0
-1154 -1191 0
-1154 -1192 0
-1154 -1193 0
-1154 -1194 0
-1154 -1195 0
-1154 -1196 0
-1154 -1197 0
-1154 -1198 0
-1154 -1199 0
-1154 -1200 0
-1154 -1201 0
-1154 -1202 0
-1154 -1203 0
-1154 -1204 0
-1154 -1205 0
-1154 -1206 0
-1154 -1207 0
-1154 -1208 0
-1154 -1209 0
-1154 -1210 0
-1154 -1211 0
-1154 -1212 0
-1154 -1213 0
-1154 -1214 0
-1154 -1215 0
-1154 -1216 0
-1154 -1217 0
-1154 -1218 0
-1154 -1219 0
-1154 -1220 0
-1154 -1221 0
-1154 -1222 0
-1154 -1223 0
-1154 -1224 0
-1154 -1225 0
-1154 -1226 0
-1154 -1227 0
-1154 -1228 0
-1154 -1229 0
-1154 -1230 0
-1155 -1156 0
-1155 -1157 0
-1155 -1158 0
-1155 -1159 0
-1155 -1160 0
-1155 -1161 0
-1155 -1162 0
-1155 -1163 0
-1155 -1164 0
-1155 -1165 0
-1155 -1166 0
-1155 -1167 0
-1155 -1168 0
-1155 -1169 0
-1155 -1170 0
-1155 -1171 0
-1155 -1172 0
-1155 -1173 0
-1155 -1174 0
-1155 -1175 0
-1155 -1176 0
-1155 -1177 0
-1155 -1178 0
-1155 -1179 0
-1155 -1180 0
-1155 -1181 0
-1155 -1182 0
-1155 -1183 0
-1155 -1184 0
-1155 -1185 0
-1155 -1186 0
-1155 -1187 0
-1155 -1188 0
-1155 -1189 0
-1155 -1190 0
-1155 -1191 0
-1155 -1192 0
-1155 -1193 0
-1155 -1194 0
-1155 -1195 0
-1155 -1196 0
-1155 -1197 0
-1155 -1198 0
-1155 -1199 0
-1155 -1200 0
-1155 -1201 0
-1155 -1202 0
-1155 -1203 0
-1155 -1204 0
-1155 -1205 0
-1155 -1206 0
-1155 -1207 0
-1155 -1208 0
-1155 -1209 0
-1155 -1210 0
-1155 -1211 0
-1155 -1212 0
-1155 -1213 0
-1155 -1214 0
-1155 -1215 0
-1155 -1216 0
-1155 -1217 0
-1155 -1218 0
-1155 -1219 0
-1155 -1220 0
-1155 -1221 0
-1155 -1222 0
-1155 -1223 0
-1155 -1224 0
-1155 -1225 0
-1155 -1226 0
-1155 -1227 0
-1155 -1228 0
-1155 -1229 0
-1155 -1230 0
-1156 -1157 0
-1156 -1158 0
-1156 -1159 0
-1156 -1160 0
-1156 -1161 0
-1156 -1162 0
-1156 -1163 0
-1156 -1164 0
-1156 -1165 0
-1156 -1166 0
-1156 -1167 0
-1156 -1168 0
-1156 -1169 0
-1156 -1170 0
-1156 -1171 0
-1156 -1172 0
-1156 -1173 0
-1156 -1174 0
-1156 -1175 0
-1156 -1176 0
-1156 -1177 0
-1156 -1178 0
-1156 -1179 0
-1156 -1180 0
-1156 -1181 0
-1156 -1182 0
-1156 -1183 0
-1156 -1184 0
-1156 -1185 0
-1156 -1186 0
-1156 -1187 0
-1156 -1188 0
-1156 -1189 0
-1156 -1190 0
-1156 -1191 0
-1156 -1192 0
-1156 -1193 0
-1156 -1194 0
-1156 -1195 0
-1156 -1196 0
-1156 -1197 0
-1156 -1198 0
-1156 -1199 0
-1156 -1200 0
-1156 -1201 0
-1156 -1202 0
-1156 -1203 0
-1156 -1204 0
-1156 -1205 0
-1156 -1206 0
-1156 -1207 0
-1156 -1208 0
-1156 -1209 0
-1156 -1210 0
-1156 -1211 0
-1156 -1212 0
-1156 -1213 0
-1156 -1214 0
-1156 -1215 0
-1156 -1216 0
-1156 -1217 0
-1156 -1218 0
-1156 -1219 0
-1156 -1220 0
-1156 -1221 0
-1156 -1222 0
-1156 -1223 0
-1156 -1224 0
-1156 -1225 0
-1156 -1226 0
-1156 -1227 0
-1156 -1228 0
-1156 -1229 0
-1156 -1230 0
-1157 -1158 0
-1157 -1159 0
-1157 -1160 0
-1157 -1161 0
-1157 -1162 0
-1157 -1163 0
-1157 -1164 0
-1157 -1165 0
-1157 -1166 0
-1157 -1167 0
-1157 -1168 0
-1157 -1169 0
-1157 -1170 0
-1157 -1171 0
-1157 -1172 0
-1157 -1173 0
-1157 -1174 0
-1157 -1175 0
-1157 -1176 0
-1157 -1177 0
-1157 -1178 0
-1157 -1179 0
-1157 -1180 0
-1157 -1181 0
-1157 -1182 0
-1157 -1183 0
-1157 -1184 0
-1157 -1185 0
-1157 -1186 0
-1157 -1187 0
-1157 -1188 0
-1157 -1189 0
-1157 -1190 0
-1157 -1191 0
-1157 -1192 0
-1157 -1193 0
-1157 -1194 0
-1157 -1195 0
-1157 -1196 0
-1157 -1197 0
-1157 -1198 0
-1157 -1199 0
-1157 -1200 0
-1157 -1201 0
-1157 -1202 0
-1157 -1203 0
-1157 -1204 0
-1157 -1205 0
-1157 -1206 0
-1157 -1207 0
-1157 -1208 0
-1157 -1209 0
-1157 -1210 0
-1157 -1211 0
-1157 -1212 0
-1157 -1213 0
-1157 -1214 0
-1157 -1215 0
-1157 -1216 0
-1157 -1217 0
-1157 -1218 0
-1157 -1219 0
-1157 -1220 0
-1157 -1221 0
-1157 -1222 0
-1157 -1223 0
-1157 -1224 0
-1157 -1225 0
-1157 -1226 0
-1157 -1227 0
-1157 -1228 0
-1157 -1229 0
-1157 -1230 0
-1158 -1159 0
-1158 -1160 0
-1158 -1161 0
-1158 -1162 0
-1158 -1163 0
-1158 -1164 0
-1158 -1165 0
-1158 -1166 0
-1158 -1167 0
-1158 -1168 0
-1158 -1169 0
-1158 -1170 0
-1158 -1171 0
-1158 -1172 0
-1158 -1173 0
-1158 -1174 0
-1158 -1175 0
-1158 -1176 0
-1158 -1177 0
-1158 -1178 0
-1158 -1179 0
-1158 -1180 0
-1158 -1181 0
-1158 -1182 0
-1158 -1183 0
-1158 -1184 0
-1158 -1185 0
-1158 -1186 0
-1158 -1187 0
-1158 -1188 0
-1158 -1189 0
-1158 -1190 0
-1158 -1191 0
-1158 -1192 0
-1158 -1193 0
-1158 -1194 0
-1158 -1195 0
-1158 -1196 0
-1158 -1197 0
-1158 -1198 0
-1158 -1199 0
-1158 -1200 0
-1158 -1201 0
-1158 -1202 0
-1158 -1203 0
-1158 -1204 0
-1158 -1205 0
-1158 -1206 0
-1158 -1207 0
-1158 -1208 0
-1158 -1209 0
-1158 -1210 0
-1158 -1211 0
-1158 -1212 0
-1158 -1213 0
-1158 -1214 0
-1158 -1215 0
-1158 -1216 0
-1158 -1217 0
-1158 -1218 0
-1158 -1219 0
-1158 -1220 0
-1158 -1221 0
-1158 -1222 0
-1158 -1223 0
-1158 -1224 0
-1158 -1225 0
-1158 -1226 0
-1158 -1227 0
-1158 -1228 0
-1158 -1229 0
-1158 -1230 0
-1159 -1160 0
-1159 -1161 0
-1159 -1162 0
-1159 -1163 0
-1159 -1164 0
-1159 -1165 0
-1159 -1166 0
-1159 -1167 0
-1159 -1168 0
-1159 -1169 0
-1159 -1170 0
-1159 -1171 0
-1159 -1172 0
-1159 -1173 0
-1159 -1174 0
-1159 -1175 0
-1159 -1176 0
-1159 -1177 0
-1159 -1178 0
-1159 -1179 0
-1159 -1180 0
-1159 -1181 0
-1159 -1182 0
-1159 -1183 0
-1159 -1184 0
-1159 -1185 0
-1159 -1186 0
-1159 -1187 0
-1159 -1188 0
-1159 -1189 0
-1159 -1190 0
-1159 -1191 0
-1159 -1192 0
-1159 -1193 0
-1159 -1194 0
-1159 -1195 0
-1159 -1196 0
-1159 -1197 0
-1159 -1198 0
-1159 -1199 0
-1159 -1200 0
-1159 -1201 0
-1159 -1202 0
-1159 -1203 0
-1159 -1204 0
-1159 -1205 0
-1159 -1206 0
-1159 -1207 0
-1159 -1208 0
-1159 -1209 0
-1159 -1210 0
-1159 -1211 0
-1159 -1212 0
-1159 -1213 0
-1159 -1214 0
-1159 -1215 0
-1159 -1216 0
-1159 -1217 0
-1159 -1218 0
-1159 -1219 0
-1159 -1220 0
-1159 -1221 0
-1159 -1222 0
-1159 -1223 0
-1159 -1224 0
-1159 -1225 0
-1159 -1226 0
-1159 -1227 0
-1159 -1228 0
-1159 -1229 0
-1159 -1230 0
-1160 -1161 0
-1160 -1162 0
-1160 -1163 0
-1160 -1164 0
-1160 -1165 0
-1160 -1166 0
-1160 -1167 0
-1160 -1168 0
-1160 -1169 0
-1160 -1170 0
-1160 -1171 0
-1160 -1172 0
-1160 -1173 0
-1160 -1174 0
-1160 -1175 0
-1160 -1176 0
-1160 -1177 0
-1160 -1178 0
-1160 -1179 0
-1160 -1180 0
-1160 -1181 0
-1160 -1182 0
-1160 -1183 0
-1160 -1184 0
-1160 -1185 0
-1160 -1186 0
-1160 -1187 0
-1160 -1188 0
-1160 -1189 0
-1160 -1190 0
-1160 -1191 0
-1160 -1192 0
-1160 -1193 0
-1160 -1194 0
-1160 -1195 0
-1160 -1196 0
-1160 -1197 0
-1160 -1198 0
-1160 -1199 0
-1160 -1200 0
-1160 -1201 0
-1160 -1202 0
-1160 -1203 0
-1160 -1204 0
-1160 -1205 0
-1160 -1206 0
-1160 -1207 0
-1160 -1208 0
-1160 -1209 0
-1160 -1210 0
-1160 -1211 0
-1160 -1212 0
-1160 -1213 0
-1160 -1214 0
-1160 -1215 0
-1160 -1216 0
-1160 -1217 0
-1160 -1218 0
-1160 -1219 0
-1160 -1220 0
-1160 -1221 0
-1160 -1222 0
-1160 -1223 0
-1160 -1224 0
-1160 -1225 0
-1160 -1226 0
-1160 -1227 0
-1160 -1228 0
-1160 -1229 0
-1160 -1230 0
-1161 -1162 0
-1161 -1163 0
-1161 -1164 0
-1161 -1165 0
-1161 -1166 0
-1161 -1167 0
-1161 -1168 0
-1161 -1169 0
-1161 -1170 0
-1161 -1171 0
-1161 -1172 0
-1161 -1173 0
-1161 -1174 0
-1161 -1175 0
-1161 -1176 0
-1161 -1177 0
-1161 -1178 0
-1161 -1179 0
-1161 -1180 0
-1161 -1181 0
-1161 -1182 0
-1161 -1183 0
-1161 -1184 0
-1161 -1185 0
-1161 -1186 0
-1161 -1187 0
-1161 -1188 0
-1161 -1189 0
-1161 -1190 0
-1161 -1191 0
-1161 -1192 0
-1161 -1193 0
-1161 -1194 0
-1161 -1195 0
-1161 -1196 0
-1161 -1197 0
-1161 -1198 0
-1161 -1199 0
-1161 -1200 0
-1161 -1201 0
-1161 -1202 0
-1161 -1203 0
-1161 -1204 0
-1161 -1205 0
-1161 -1206 0
-1161 -1207 0
-1161 -1208 0
-1161 -1209 0
-1161 -1210 0
-1161 -1211 0
-1161 -1212 0
-1161 -1213 0
-1161 -1214 0
-1161 -1215 0
-1161 -1216 0
-1161 -1217 0
-1161 -1218 0
-1161 -1219 0
-1161 -1220 0
-1161 -1221 0
-1161 -1222 0
-1161 -1223 0
-1161 -1224 0
-1161 -1225 0
-1161 -1226 0
-1161 -1227 0
-1161 -1228 0
-1161 -1229 0
-1161 -1230 0
-1162 -1163 0
-1162 -1164 0
-1162 -1165 0
-1162 -1166 0
-1162 -1167 0
-1162 -1168 0
-1162 -1169 0
-1162 -1170 0
-1162 -1171 0
-1162 -1172 0
-1162 -1173 0
-1162 -1174 0
-1162 -1175 0
-1162 -1176 0
-1162 -1177 0
-1162 -1178 0
-1162 -1179 0
-1162 -1180 0
-1162 -1181 0
-1162 -1182 0
-1162 -1183 0
-1162 -1184 0
-1162 -1185 0
-1162 -1186 0
-1162 -1187 0
-1162 -1188 0
-1162 -1189 0
-1162 -1190 0
-1162 -1191 0
-1162 -1192 0
-1162 -1193 0
-1162 -1194 0
-1162 -1195 0
-1162 -1196 0
-1162 -1197 0
-1162 -1198 0
-1162 -1199 0
-1162 -1200 0
-1162 -1201 0
-1162 -1202 0
-1162 -1203 0
-1162 -1204 0
-1162 -1205 0
-1162 -1206 0
-1162 -1207 0
-1162 -1208 0
-1162 -1209 0
-1162 -1210 0
-1162 -1211 0
-1162 -1212 0
-1162 -1213 0
-1162 -1214 0
-1162 -1215 0
-1162 -1216 0
-1162 -1217 0
-1162 -1218 0
-1162 -1219 0
-1162 -1220 0
-1162 -1221 0
-1162 -1222 0
-1162 -1223 0
-1162 -1224 0
-1162 -1225 0
-1162 -1226 0
-1162 -1227 0
-1162 -1228 0
-1162 -1229 0
-1162 -1230 0
-1163 -1164 0
-1163 -1165 0
-1163 -1166 0
-1163 -1167 0
-1163 -1168 0
-1163 -1169 0
-1163 -1170 0
-1163 -1171 0
-1163 -1172 0
-1163 -1173 0
-1163 -1174 0
-1163 -1175 0
-1163 -1176 0
-1163 -1177 0
-1163 -1178 0
-1163 -1179 0
-1163 -1180 0
-1163 -1181 0
-1163 -1182 0
-1163 -1183 0
-1163 -1184 0
-1163 -1185 0
-1163 -1186 0
-1163 -1187 0
-1163 -1188 0
-1163 -1189 0
-1163 -1190 0
-1163 -1191 0
-1163 -1192 0
-1163 -1193 0
-1163 -1194 0
-1163 -1195 0
-1163 -1196 0
-1163 -1197 0
-1163 -1198 0
-1163 -1199 0
-1163 -1200 0
-1163 -1201 0
-1163 -1202 0
-1163 -1203 0
-1163 -1204 0
-1163 -1205 0
-1163 -1206 0
-1163 -1207 0
-1163 -1208 0
-1163 -1209 0
-1163 -1210 0
-1163 -1211 0
-1163 -1212 0
-1163 -1213 0
-1163 -1214 0
-1163 -1215 0
-1163 -1216 0
-1163 -1217 0
-1163 -1218 0
-1163 -1219 0
-1163 -1220 0
-1163 -1221 0
-1163 -1222 0
-1163 -1223 0
-1163 -1224 0
-1163 -1225 0
-1163 -1226 0
-1163 -1227 0
-1163 -1228 0
-1163 -1229 0
-1163 -1230 0
-1164 -1165 0
-1164 -1166 0
-1164 -1167 0
-1164 -1168 0
-1164 -1169 0
-1164 -1170 0
-1164 -1171 0
-1164 -1172 0
-1164 -1173 0
-1164 -1174 0
-1164 -1175 0
-1164 -1176 0
-1164 -1177 0
-1164 -1178 0
-1164 -1179 0
-1164 -1180 0
-1164 -1181 0
-1164 -1182 0
-1164 -1183 0
-1164 -1184 0
-1164 -1185 0
-1164 -1186 0
-1164 -1187 0
-1164 -1188 0
-1164 -1189 0
-1164 -1190 0
-1164 -1191 0
-1164 -1192 0
-1164 -1193 0
-1164 -1194 0
-1164 -1195 0
-1164 -1196 0
-1164 -1197 0
-1164 -1198 0
-1164 -1199 0
-1164 -1200 0
-1164 -1201 0
-1164 -1202 0
-1164 -1203 0
-1164 -1204 0
-1164 -1205 0
-1164 -1206 0
-1164 -1207 0
-1164 -1208 0
-1164 -1209 0
-1164 -1210 0
-1164 -1211 0
-1164 -1212 0
-1164 -1213 0
-1164 -1214 0
-1164 -1215 0
-1164 -1216 0
-1164 -1217 0
-1164 -1218 0
-1164 -1219 0
-1164 -1220 0
-1164 -1221 0
-1164 -1222 0
-1164 -1223 0
-1164 -1224 0
-1164 -1225 0
-1164 -1226 0
-1164 -1227 0
-1164 -1228 0
-1164 -1229 0
-1164 -1230 0
-1165 -1166 0
-1165 -1167 0
-1165 -1168 0
-1165 -1169 0
-1165 -1170 0
-1165 -1171 0
-1165 -1172 0
-1165 -1173 0
-1165 -1174 0
-1165 -1175 0
-1165 -1176 0
-1165 -1177 0
-1165 -1178 0
-1165 -1179 0
-1165 -1180 0
-1165 -1181 0
-1165 -1182 0
-1165 -1183 0
-1165 -1184 0
-1165 -1185 0
-1165 -1186 0
-1165 -1187 0
-1165 -1188 0
-1165 -1189 0
-1165 -1190 0
-1165 -1191 0
-1165 -1192 0
-1165 -1193 0
-1165 -1194 0
-1165 -1195 0
-1165 -1196 0
-1165 -1197 0
-1165 -1198 0
-1165 -1199 0
-1165 -1200 0
-1165 -1201 0
-1165 -1202 0
-1165 -1203 0
-1165 -1204 0
-1165 -1205 0
-1165 -1206 0
-1165 -1207 0
-1165 -1208 0
-1165 -1209 0
-1165 -1210 0
-1165 -1211 0
-1165 -1212 0
-1165 -1213 0
-1165 -1214 0
-1165 -1215 0
-1165 -1216 0
-1165 -1217 0
-1165 -1218 0
-1165 -1219 0
-1165 -1220 0
-1165 -1221 0
-1165 -1222 0
-1165 -1223 0
-1165 -1224 0
-1165 -1225 0
-1165 -1226 0
-1165 -1227 0
-1165 -1228 0
-1165 -1229 0
-1165 -1230 0
-1166 -1167 0
-1166 -1168 0
-1166 -1169 0
-1166 -1170 0
-1166 -1171 0
-1166 -1172 0
-1166 -1173 0
-1166 -1174 0
-1166 -1175 0
-1166 -1176 0
-1166 -1177 0
-1166 -1178 0
-1166 -1179 0
-1166 -1180 0
-1166 -1181 0
-1166 -1182 0
-1166 -1183 0
-1166 -1184 0
-1166 -1185 0
-1166 -1186 0
-1166 -1187 0
-1166 -1188 0
-1166 -1189 0
-1166 -1190 0
-1166 -1191 0
-1166 -1192 0
-1166 -1193 0
-1166 -1194 0
-1166 -1195 0
-1166 -1196 0
-1166 -1197 0
-1166 -1198 0
-1166 -1199 0
-1166 -1200 0
-1166 -1201 0
-1166 -1202 0
-1166 -1203 0
-1166 -1204 0
-1166 -1205 0
-1166 -1206 0
-1166 -1207 0
-1166 -1208 0
-1166 -1209 0
-1166 -1210 0
-1166 -1211 0
-1166 -1212 0
-1166 -1213 0
-1166 -1214 0
-1166 -1215 0
-1166 -1216 0
-1166 -1217 0
-1166 -1218 0
-1166 -1219 0
-1166 -1220 0
-1166 -1221 0
-1166 -1222 0
-1166 -1223 0
-1166 -1224 0
-1166 -1225 0
-1166 -1226 0
-1166 -1227 0
-1166 -1228 0
-1166 -1229 0
-1166 -1230 0
-1167 -1168 0
-1167 -1169 0
-1167 -1170 0
-1167 -1171 0
-1167 -1172 0
-1167 -1173 0
-1167 -1174 0
-1167 -1175 0
-1167 -1176 0
-1167 -1177 0
-1167 -1178 0
-1167 -1179 0
-1167 -1180 0
-1167 -1181 0
-1167 -1182 0
-1167 -1183 0
-1167 -1184 0
-1167 -1185 0
-1167 -1186 0
-1167 -1187 0
-1167 -1188 0
-1167 -1189 0
-1167 -1190 0
-1167 -1191 0
-1167 -1192 0
-1167 -1193 0
-1167 -1194 0
-1167 -1195 0
-1167 -1196 0
-1167 -1197 0
-1167 -1198 0
-1167 -1199 0
-1167 -1200 0
-1167 -1201 0
-1167 -1202 0
-1167 -1203 0
-1167 -1204 0
-1167 -1205 0
-1167 -1206 0
-1167 -1207 0
-1167 -1208 0
-1167 -1209 0
-1167 -1210 0
-1167 -1211 0
-1167 -1212 0
-1167 -1213 0
-1167 -1214 0
-1167 -1215 0
-1167 -1216 0
-1167 -1217 0
-1167 -1218 0
-1167 -1219 0
-1167 -1220 0
-1167 -1221 0
-1167 -1222 0
-1167 -1223 0
-1167 -1224 0
-1167 -1225 0
-1167 -1226 0
-1167 -1227 0
-1167 -1228 0
-1167 -1229 0
-1167 -1230 0
-1168 -1169 0
-1168 -1170 0
-1168 -1171 0
-1168 -1172 0
-1168 -1173 0
-1168 -1174 0
-1168 -1175 0
-1168 -1176 0
-1168 -1177 0
-1168 -1178 0
-1168 -1179 0
-1168 -1180 0
-1168 -1181 0
-1168 -1182 0
-1168 -1183 0
-1168 -1184 0
-1168 -1185 0
-1168 -1186 0
-1168 -1187 0
-1168 -1188 0
-1168 -1189 0
-1168 -1190 0
-1168 -1191 0
-1168 -1192 0
-1168 -1193 0
-1168 -1194 0
-1168 -1195 0
-1168 -1196 0
-1168 -1197 0
-1168 -1198 0
-1168 -1199 0
-1168 -1200 0
-1168 -1201 0
-1168 -1202 0
-1168 -1203 0
-1168 -1204 0
-1168 -1205 0
-1168 -1206 0
-1168 -1207 0
-1168 -1208 0
-1168 -1209 0
-1168 -1210 0
-1168 -1211 0
-1168 -1212 0
-1168 -1213 0
-1168 -1214 0
-1168 -1215 0
-1168 -1216 0
-1168 -1217 0
-1168 -1218 0
-1168 -1219 0
-1168 -1220 0
-1168 -1221 0
-1168 -1222 0
-1168 -1223 0
-1168 -1224 0
-1168 -1225 0
-1168 -1226 0
-1168 -1227 0
-1168 -1228 0
-1168 -1229 0
-1168 -1230 0
-1169 -1170 0
-1169 -1171 0
-1169 -1172 0
-1169 -1173 0
-1169 -1174 0
-1169 -1175 0
-1169 -1176 0
-1169 -1177 0
-1169 -1178 0
-1169 -1179 0
-1169 -1180 0
-1169 -1181 0
-1169 -1182 0
-1169 -1183 0
-1169 -1184 0
-1169 -1185 0
-1169 -1186 0
-1169 -1187 0
-1169 -1188 0
-1169 -1189 0
-1169 -1190 0
-1169 -1191 0
-1169 -1192 0
-1169 -1193 0
-1169 -1194 0
-1169 -1195 0
-1169 -1196 0
-1169 -1197 0
-1169 -1198 0
-1169 -1199 0
-1169 -1200 0
-1169 -1201 0
-1169 -1202 0
-1169 -1203 0
-1169 -1204 0
-1169 -1205 0
-1169 -1206 0
-1169 -1207 0
-1169 -1208 0
-1169 -1209 0
-1169 -1210 0
-1169 -1211 0
-1169 -1212 0
-1169 -1213 0
-1169 -1214 0
-1169 -1215 0
-1169 -1216 0
-1169 -1217 0
-1169 -1218 0
-1169 -1219 0
-1169 -1220 0
-1169 -1221 0
-1169 -1222 0
-1169 -1223 0
-1169 -1224 0
-1169 -1225 0
-1169 -1226 0
-1169 -1227 0
-1169 -1228 0
-1169 -1229 0
-1169 -1230 0
-1170 -1171 0
-1170 -1172 0
-1170 -1173 0
-1170 -1174 0
-1170 -1175 0
-1170 -1176 0
-1170 -1177 0
-1170 -1178 0
-1170 -1179 0
-1170 -1180 0
-1170 -1181 0
-1170 -1182 0
-1170 -1183 0
-1170 -1184 0
-1170 -1185 0
-1170 -1186 0
-1170 -1187 0
-1170 -1188 0
-1170 -1189 0
-1170 -1190 0
-1170 -1191 0
-1170 -1192 0
-1170 -1193 0
-1170 -1194 0
-1170 -1195 0
-1170 -1196 0
-1170 -1197 0
-1170 -1198 0
-1170 -1199 0
-1170 -1200 0
-1170 -1201 0
-1170 -1202 0
-1170 -1203 0
-1170 -1204 0
-1170 -1205 0
-1170 -1206 0
-1170 -1207 0
-1170 -1208 0
-1170 -1209 0
-1170 -1210 0
-1170 -1211 0
-1170 -1212 0
-1170 -1213 0
-1170 -1214 0
-1170 -1215 0
-1170 -1216 0
-1170 -1217 0
-1170 -1218 0
-1170 -1219 0
-1170 -1220 0
-1170 -1221 0
-1170 -1222 0
-1170 -1223 0
-1170 -1224 0
-1170 -1225 0
-1170 -1226 0
-1170 -1227 0
-1170 -1228 0
-1170 -1229 0
-1170 -1230 0
-1171 -1172 0
-1171 -1173 0
-1171 -1174 0
-1171 -1175 0
-1171 -1176 0
-1171 -1177 0
-1171 -1178 0
-1171 -1179 0
-1171 -1180 0
-1171 -1181 0
-1171 -1182 0
-1171 -1183 0
-1171 -1184 0
-1171 -1185 0
-1171 -1186 0
-1171 -1187 0
-1171 -1188 0
-1171 -1189 0
-1171 -1190 0
-1171 -1191 0
-1171 -1192 0
-1171 -1193 0
-1171 -1194 0
-1171 -1195 0
-1171 -1196 0
-1171 -1197 0
-1171 -1198 0
-1171 -1199 0
-1171 -1200 0
-1171 -1201 0
-1171 -1202 0
-1171 -1203 0
-1171 -1204 0
-1171 -1205 0
-1171 -1206 0
-1171 -1207 0
-1171 -1208 0
-1171 -1209 0
-1171 -1210 0
-1171 -1211 0
-1171 -1212 0
-1171 -1213 0
-1171 -1214 0
-1171 -1215 0
-1171 -1216 0
-1171 -1217 0
-1171 -1218 0
-1171 -1219 0
-1171 -1220 0
-1171 -1221 0
-1171 -1222 0
-1171 -1223 0
-1171 -1224 0
-1171 -1225 0
-1171 -1226 0
-1171 -1227 0
-1171 -1228 0
-1171 -1229 0
-1171 -1230 0
-1172 -1173 0
-1172 -1174 0
-1172 -1175 0
-1172 -1176 0
-1172 -1177 0
-1172 -1178 0
-1172 -1179 0
-1172 -1180 0
-1172 -1181 0
-1172 -1182 0
-1172 -1183 0
-1172 -1184 0
-1172 -1185 0
-1172 -1186 0
-1172 -1187 0
-1172 -1188 0
-1172 -1189 0
-1172 -1190 0
-1172 -1191 0
-1172 -1192 0
-1172 -1193 0
-1172 -1194 0
-1172 -1195 0
-1172 -1196 0
-1172 -1197 0
-1172 -1198 0
-1172 -1199 0
-1172 -1200 0
-1172 -1201 0
-1172 -1202 0
-1172 -1203 0
-1172 -1204 0
-1172 -1205 0
-1172 -1206 0
-1172 -1207 0
-1172 -1208 0
-1172 -1209 0
-1172 -1210 0
-1172 -1211 0
-1172 -1212 0
-1172 -1213 0
-1172 -1214 0
-1172 -1215 0
-1172 -1216 0
-1172 -1217 0
-1172 -1218 0
-1172 -1219 0
-1172 -1220 0
-1172 -1221 0
-1172 -1222 0
-1172 -1223 0
-1172 -1224 0
-1172 -1225 0
-1172 -1226 0
-1172 -1227 0
-1172 -1228 0
-1172 -1229 0
-1172 -1230 0
-1173 -1174 0
-1173 -1175 0
-1173 -1176 0
-1173 -1177 0
-1173 -1178 0
-1173 -1179 0
-1173 -1180 0
-1173 -1181 0
-1173 -1182 0
-1173 -1183 0
-1173 -1184 0
-1173 -1185 0
-1173 -1186 0
-1173 -1187 0
-1173 -1188 0
-1173 -1189 0
-1173 -1190 0
-1173 -1191 0
-1173 -1192 0
-1173 -1193 0
-1173 -1194 0
-1173 -1195 0
-1173 -1196 0
-1173 -1197 0
-1173 -1198 0
-1173 -1199 0
-1173 -1200 0
-1173 -1201 0
-1173 -1202 0
-1173 -1203 0
-1173 -1204 0
-1173 -1205 0
-1173 -1206 0
-1173 -1207 0
-1173 -1208 0
-1173 -1209 0
-1173 -1210 0
-1173 -1211 0
-1173 -1212 0
-1173 -1213 0
-1173 -1214 0
-1173 -1215 0
-1173 -1216 0
-1173 -1217 0
-1173 -1218 0
-1173 -1219 0
-1173 -1220 0
-1173 -1221 0
-1173 -1222 0
-1173 -1223 0
-1173 -1224 0
-1173 -1225 0
-1173 -1226 0
-1173 -1227 0
-1173 -1228 0
-1173 -1229 0
-1173 -1230 0
-1174 -1175 0
-1174 -1176 0
-1174 -1177 0
-1174 -1178 0
-1174 -1179 0
-1174 -1180 0
-1174 -1181 0
-1174 -1182 0
-1174 -1183 0
-1174 -1184 0
-1174 -1185 0
-1174 -1186 0
-1174 -1187 0
-1174 -1188 0
-1174 -1189 0
-1174 -1190 0
-1174 -1191 0
-1174 -1192 0
-1174 -1193 0
-1174 -1194 0
-1174 -1195 0
-1174 -1196 0
-1174 -1197 0
-1174 -1198 0
-1174 -1199 0
-1174 -1200 0
-1174 -1201 0
-1174 -1202 0
-1174 -1203 0
-1174 -1204 0
-1174 -1205 0
-1174 -1206 0
-1174 -1207 0
-1174 -1208 0
-1174 -1209 0
-1174 -1210 0
-1174 -1211 0
-1174 -1212 0
-1174 -1213 0
-1174 -1214 0
-1174 -1215 0
-1174 -1216 0
-1174 -1217 0
-1174 -1218 0
-1174 -1219 0
-1174 -1220 0
-1174 -1221 0
-1174 -1222 0
-1174 -1223 0
-1174 -1224 0
-1174 -1225 0
-1174 -1226 0
-1174 -1227 0
-1174 -1228 0
-1174 -1229 0
-1174 -1230 0
-1175 -1176 0
-1175 -1177 0
-1175 -1178 0
-1175 -1179 0
-1175 -1180 0
-1175 -1181 0
-1175 -1182 0
-1175 -1183 0
-1175 -1184 0
-1175 -1185 0
-1175 -1186 0
-1175 -1187 0
-1175 -1188 0
-1175 -1189 0
-1175 -1190 0
-1175 -1191 0
-1175 -1192 0
-1175 -1193 0
-1175 -1194 0
-1175 -1195 0
-1175 -1196 0
-1175 -1197 0
-1175 -1198 0
-1175 -1199 0
-1175 -1200 0
-1175 -1201 0
-1175 -1202 0
-1175 -1203 0
-1175 -1204 0
-1175 -1205 0
-1175 -1206 0
-1175 -1207 0
-1175 -1208 0
-1175 -1209 0
-1175 -1210 0
-1175 -1211 0
-1175 -1212 0
-1175 -1213 0
-1175 -1214 0
-1175 -1215 0
-1175 -1216 0
-1175 -1217 0
-1175 -1218 0
-1175 -1219 0
-1175 -1220 0
-1175 -1221 0
-1175 -1222 0
-1175 -1223 0
-1175 -1224 0
-1175 -1225 0
-1175 -1226 0
-1175 -1227 0
-1175 -1228 0
-1175 -1229 0
-1175 -1230 0
-1176 -1177 0
-1176 -1178 0
-1176 -1179 0
-1176 -1180 0
-1176 -1181 0
-1176 -1182 0
-1176 -1183 0
-1176 -1184 0
-1176 -1185 0
-1176 -1186 0
-1176 -1187 0
-1176 -1188 0
-1176 -1189 0
-1176 -1190 0
-1176 -1191 0
-1176 -1192 0
-1176 -1193 0
-1176 -1194 0
-1176 -1195 0
-1176 -1196 0
-1176 -1197 0
-1176 -1198 0
-1176 -1199 0
-1176 -1200 0
-1176 -1201 0
-1176 -1202 0
-1176 -1203 0
-1176 -1204 0
-1176 -1205 0
-1176 -1206 0
-1176 -1207 0
-1176 -1208 0
-1176 -1209 0
-1176 -1210 0
-1176 -1211 0
-1176 -1212 0
-1176 -1213 0
-1176 -1214 0
-1176 -1215 0
-1176 -1216 0
-1176 -1217 0
-1176 -1218 0
-1176 -1219 0
-1176 -1220 0
-1176 -1221 0
-1176 -1222 0
-1176 -1223 0
-1176 -1224 0
-1176 -1225 0
-1176 -1226 0
-1176 -1227 0
-1176 -1228 0
-1176 -1229 0
-1176 -1230 0
-1177 -1178 0
-1177 -1179 0
-1177 -1180 0
-1177 -1181 0
-1177 -1182 0
-1177 -1183 0
-1177 -1184 0
-1177 -1185 0
-1177 -1186 0
-1177 -1187 0
-1177 -1188 0
-1177 -1189 0
-1177 -1190 0
-1177 -1191 0
-1177 -1192 0
-1177 -1193 0
-1177 -1194 0
-1177 -1195 0
-1177 -1196 0
-1177 -1197 0
-1177 -1198 0
-1177 -1199 0
-1177 -1200 0
-1177 -1201 0
-1177 -1202 0
-1177 -1203 0
-1177 -1204 0
-1177 -1205 0
-1177 -1206 0
-1177 -1207 0
-1177 -1208 0
-1177 -1209 0
-1177 -1210 0
-1177 -1211 0
-1177 -1212 0
-1177 -1213 0
-1177 -1214 0
-1177 -1215 0
-1177 -1216 0
-1177 -1217 0
-1177 -1218 0
-1177 -1219 0
-1177 -1220 0
-1177 -1221 0
-1177 -1222 0
-1177 -1223 0
-1177 -1224 0
-1177 -1225 0
-1177 -1226 0
-1177 -1227 0
-1177 -1228 0
-1177 -1229 0
-1177 -1230 0
-1178 -1179 0
-1178 -1180 0
-1178 -1181 0
-1178 -1182 0
-1178 -1183 0
-1178 -1184 0
-1178 -1185 0
-1178 -1186 0
-1178 -1187 0
-1178 -1188 0
-1178 -1189 0
-1178 -1190 0
-1178 -1191 0
-1178 -1192 0
-1178 -1193 0
-1178 -1194 0
-1178 -1195 0
-1178 -1196 0
-1178 -1197 0
-1178 -1198 0
-1178 -1199 0
-1178 -1200 0
-1178 -1201 0
-1178 -1202 0
-1178 -1203 0
-1178 -1204 0
-1178 -1205 0
-1178 -1206 0
-1178 -1207 0
-1178 -1208 0
-1178 -1209 0
-1178 -1210 0
-1178 -1211 0
-1178 -1212 0
-1178 -1213 0
-1178 -1214 0
-1178 -1215 0
-1178 -1216 0
-1178 -1217 0
-1178 -1218 0
-1178 -1219 0
-1178 -1220 0
-1178 -1221 0
-1178 -1222 0
-1178 -1223 0
-1178 -1224 0
-1178 -1225 0
-1178 -1226 0
-1178 -1227 0
-1178 -1228 0
-1178 -1229 0
-1178 -1230 0
-1179 -1180 0
-1179 -1181 0
-1179 -1182 0
-1179 -1183 0
-1179 -1184 0
-1179 -1185 0
-1179 -1186 0
-1179 -1187 0
-1179 -1188 0
-1179 -1189 0
-1179 -1190 0
-1179 -1191 0
-1179 -1192 0
-1179 -1193 0
-1179 -1194 0
-1179 -1195 0
-1179 -1196 0
-1179 -1197 0
-1179 -1198 0
-1179 -1199 0
-1179 -1200 0
-1179 -1201 0
-1179 -1202 0
-1179 -1203 0
-1179 -1204 0
-1179 -1205 0
-1179 -1206 0
-1179 -1207 0
-1179 -1208 0
-1179 -1209 0
-1179 -1210 0
-1179 -1211 0
-1179 -1212 0
-1179 -1213 0
-1179 -1214 0
-1179 -1215 0
-1179 -1216 0
-1179 -1217 0
-1179 -1218 0
-1179 -1219 0
-1179 -1220 0
-1179 -1221 0
-1179 -1222 0
-1179 -1223 0
-1179 -1224 0
-1179 -1225 0
-1179 -1226 0
-1179 -1227 0
-1179 -1228 0
-1179 -1229 0
-1179 -1230 0
-1180 -1181 0
-1180 -1182 0
-1180 -1183 0
-1180 -1184 0
-1180 -1185 0
-1180 -1186 0
-1180 -1187 0
-1180 -1188 0
-1180 -1189 0
-1180 -1190 0
-1180 -1191 0
-1180 -1192 0
-1180 -1193 0
-1180 -1194 0
-1180 -1195 0
-1180 -1196 0
-1180 -1197 0
-1180 -1198 0
-1180 -1199 0
-1180 -1200 0
-1180 -1201 0
-1180 -1202 0
-1180 -1203 0
-1180 -1204 0
-1180 -1205 0
-1180 -1206 0
-1180 -1207 0
-1180 -1208 0
-1180 -1209 0
-1180 -1210 0
-1180 -1211 0
-1180 -1212 0
-1180 -1213 0
-1180 -1214 0
-1180 -1215 0
-1180 -1216 0
-1180 -1217 0
-1180 -1218 0
-1180 -1219 0
-1180 -1220 0
-1180 -1221 0
-1180 -1222 0
-1180 -1223 0
-1180 -1224 0
-1180 -1225 0
-1180 -1226 0
-1180 -1227 0
-1180 -1228 0
-1180 -1229 0
-1180 -1230 0
-1181 -1182 0
-1181 -1183 0
-1181 -1184 0
-1181 -1185 0
-1181 -1186 0
-1181 -1187 0
-1181 -1188 0
-1181 -1189 0
-1181 -1190 0
-1181 -1191 0
-1181 -1192 0
-1181 -1193 0
-1181 -1194 0
-1181 -1195 0
-1181 -1196 0
-1181 -1197 0
-1181 -1198 0
-1181 -1199 0
-1181 -1200 0
-1181 -1201 0
-1181 -1202 0
-1181 -1203 0
-1181 -1204 0
-1181 -1205 0
-1181 -1206 0
-1181 -1207 0
-1181 -1208 0
-1181 -1209 0
-1181 -1210 0
-1181 -1211 0
-1181 -1212 0
-1181 -1213 0
-1181 -1214 0
-1181 -1215 0
-1181 -1216 0
-1181 -1217 0
-1181 -1218 0
-1181 -1219 0
-1181 -1220 0
-1181 -1221 0
-1181 -1222 0
-1181 -1223 0
-1181 -1224 0
-1181 -1225 0
-1181 -1226 0
-1181 -1227 0
-1181 -1228 0
-1181 -1229 0
-1181 -1230 0
-1182 -1183 0
-1182 -1184 0
-1182 -1185 0
-1182 -1186 0
-1182 -1187 0
-1182 -1188 0
-1182 -1189 0
-1182 -1190 0
-1182 -1191 0
-1182 -1192 0
-1182 -1193 0
-1182 -1194 0
-1182 -1195 0
-1182 -1196 0
-1182 -1197 0
-1182 -1198 0
-1182 -1199 0
-1182 -1200 0
-1182 -1201 0
-1182 -1202 0
-1182 -1203 0
-1182 -1204 0
-1182 -1205 0
-1182 -1206 0
-1182 -1207 0
-1182 -1208 0
-1182 -1209 0
-1182 -1210 0
-1182 -1211 0
-1182 -1212 0
-1182 -1213 0
-1182 -1214 0
-1182 -1215 0
-1182 -1216 0
-1182 -1217 0
-1182 -1218 0
-1182 -1219 0
-1182 -1220 0
-1182 -1221 0
-1182 -1222 0
-1182 -1223 0
-1182 -1224 0
-1182 -1225 0
-1182 -1226 0
-1182 -1227 0
-1182 -1228 0
-1182 -1229 0
-1182 -1230 0
-1183 -1184 0
-1183 -1185 0
-1183 -1186 0
-1183 -1187 0
-1183 -1188 0
-1183 -1189 0
-1183 -1190 0
-1183 -1191 0
-1183 -1192 0
-1183 -1193 0
-1183 -1194 0
-1183 -1195 0
-1183 -1196 0
-1183 -1197 0
-1183 -1198 0
-1183 -1199 0
-1183 -1200 0
-1183 -1201 0
-1183 -1202 0
-1183 -1203 0
-1183 -1204 0
-1183 -1205 0
-1183 -1206 0
-1183 -1207 0
-1183 -1208 0
-1183 -1209 0
-1183 -1210 0
-1183 -1211 0
-1183 -1212 0
-1183 -1213 0
-1183 -1214 0
-1183 -1215 0
-1183 -1216 0
-1183 -1217 0
-1183 -1218 0
-1183 -1219 0
-1183 -1220 0
-1183 -1221 0
-1183 -1222 0
-1183 -1223 0
-1183 -1224 0
-1183 -1225 0
-1183 -1226 0
-1183 -1227 0
-1183 -1228 0
-1183 -1229 0
-1183 -1230 0
-1184 -1185 0
-1184 -1186 0
-1184 -1187 0
-1184 -1188 0
-1184 -1189 0
-1184 -1190 0
-1184 -1191 0
-1184 -1192 0
-1184 -1193 0
-1184 -1194 0
-1184 -1195 0
-1184 -1196 0
-1184 -1197 0
-1184 -1198 0
-1184 -1199 0
-1184 -1200 0
-1184 -1201 0
-1184 -1202 0
-1184 -1203 0
-1184 -1204 0
-1184 -1205 0
-1184 -1206 0
-1184 -1207 0
-1184 -1208 0
-1184 -1209 0
-1184 -1210 0
-1184 -1211 0
-1184 -1212 0
-1184 -1213 0
-1184 -1214 0
-1184 -1215 0
-1184 -1216 0
-1184 -1217 0
-1184 -1218 0
-1184 -1219 0
-1184 -1220 0
-1184 -1221 0
-1184 -1222 0
-1184 -1223 0
-1184 -1224 0
-1184 -1225 0
-1184 -1226 0
-1184 -1227 0
-1184 -1228 0
-1184 -1229 0
-1184 -1230 0
-1185 -1186 0
-1185 -1187 0
-1185 -1188 0
-1185 -1189 0
-1185 -1190 0
-1185 -1191 0
-1185 -1192 0
-1185 -1193 0
-1185 -1194 0
-1185 -1195 0
-1185 -1196 0
-1185 -1197 0
-1185 -1198 0
-1185 -1199 0
-1185 -1200 0
-1185 -1201 0
-1185 -1202 0
-1185 -1203 0
-1185 -1204 0
-1185 -1205 0
-1185 -1206 0
-1185 -1207 0
-1185 -1208 0
-1185 -1209 0
-1185 -1210 0
-1185 -1211 0
-1185 -1212 0
-1185 -1213 0
-1185 -1214 0
-1185 -1215 0
-1185 -1216 0
-1185 -1217 0
-1185 -1218 0
-1185 -1219 0
-1185 -1220 0
-1185 -1221 0
-1185 -1222 0
-1185 -1223 0
-1185 -1224 0
-1185 -1225 0
-1185 -1226 0
-1185 -1227 0
-1185 -1228 0
-1185 -1229 0
-1185 -1230 0
-1186 -1187 0
-1186 -1188 0
-1186 -1189 0
-1186 -1190 0
-1186 -1191 0
-1186 -1192 0
-1186 -1193 0
-1186 -1194 0
-1186 -1195 0
-1186 -1196 0
-1186 -1197 0
-1186 -1198 0
-1186 -1199 0
-1186 -1200 0
-1186 -1201 0
-1186 -1202 0
-1186 -1203 0
-1186 -1204 0
-1186 -1205 0
-1186 -1206 0
-1186 -1207 0
-1186 -1208 0
-1186 -1209 0
-1186 -1210 0
-1186 -1211 0
-1186 -1212 0
-1186 -1213 0
-1186 -1214 0
-1186 -1215 0
-1186 -1216 0
-1186 -1217 0
-1186 -1218 0
-1186 -1219 0
-1186 -1220 0
-1186 -1221 0
-1186 -1222 0
-1186 -1223 0
-1186 -1224 0
-1186 -1225 0
-1186 -1226 0
-1186 -1227 0
-1186 -1228 0
-1186 -1229 0
-1186 -1230 0
-1187 -1188 0
-1187 -1189 0
-1187 -1190 0
-1187 -1191 0
-1187 -1192 0
-1187 -1193 0
-1187 -1194 0
-1187 -1195 0
-1187 -1196 0
-1187 -1197 0
-1187 -1198 0
-1187 -1199 0
-1187 -1200 0
-1187 -1201 0
-1187 -1202 0
-1187 -1203 0
-1187 -1204 0
-1187 -1205 0
-1187 -1206 0
-1187 -1207 0
-1187 -1208 0
-1187 -1209 0
-1187 -1210 0
-1187 -1211 0
-1187 -1212 0
-1187 -1213 0
-1187 -1214 0
-1187 -1215 0
-1187 -1216 0
-1187 -1217 0
-1187 -1218 0
-1187 -1219 0
-1187 -1220 0
-1187 -1221 0
-1187 -1222 0
-1187 -1223 0
-1187 -1224 0
-1187 -1225 0
-1187 -1226 0
-1187 -1227 0
-1187 -1228 0
-1187 -1229 0
-1187 -1230 0
-1188 -1189 0
-1188 -1190 0
-1188 -1191 0
-1188 -1192 0
-1188 -1193 0
-1188 -1194 0
-1188 -1195 0
-1188 -1196 0
-1188 -1197 0
-1188 -1198 0
-1188 -1199 0
-1188 -1200 0
-1188 -1201 0
-1188 -1202 0
-1188 -1203 0
-1188 -1204 0
-1188 -1205 0
-1188 -1206 0
-1188 -1207 0
-1188 -1208 0
-1188 -1209 0
-1188 -1210 0
-1188 -1211 0
-1188 -1212 0
-1188 -1213 0
-1188 -1214 0
-1188 -1215 0
-1188 -1216 0
-1188 -1217 0
-1188 -1218 0
-1188 -1219 0
-1188 -1220 0
-1188 -1221 0
-1188 -1222 0
-1188 -1223 0
-1188 -1224 0
-1188 -1225 0
-1188 -1226 0
-1188 -1227 0
-1188 -1228 0
-1188 -1229 0
-1188 -1230 0
-1189 -1190 0
-1189 -1191 0
-1189 -1192 0
-1189 -1193 0
-1189 -1194 0
-1189 -1195 0
-1189 -1196 0
-1189 -1197 0
-1189 -1198 0
-1189 -1199 0
-1189 -1200 0
-1189 -1201 0
-1189 -1202 0
-1189 -1203 0
-1189 -1204 0
-1189 -1205 0
-1189 -1206 0
-1189 -1207 0
-1189 -1208 0
-1189 -1209 0
-1189 -1210 0
-1189 -1211 0
-1189 -1212 0
-1189 -1213 0
-1189 -1214 0
-1189 -1215 0
-1189 -1216 0
-1189 -1217 0
-1189 -1218 0
-1189 -1219 0
-1189 -1220 0
-1189 -1221 0
-1189 -1222 0
-1189 -1223 0
-1189 -1224 0
-1189 -1225 0
-1189 -1226 0
-1189 -1227 0
-1189 -1228 0
-1189 -1229 0
-1189 -1230 0
-1190 -1191 0
-1190 -1192 0
-1190 -1193 0
-1190 -1194 0
-1190 -1195 0
-1190 -1196 0
-1190 -1197 0
-1190 -1198 0
-1190 -1199 0
-1190 -1200 0
-1190 -1201 0
-1190 -1202 0
-1190 -1203 0
-1190 -1204 0
-1190 -1205 0
-1190 -1206 0
-1190 -1207 0
-1190 -1208 0
-1190 -1209 0
-1190 -1210 0
-1190 -1211 0
-1190 -1212 0
-1190 -1213 0
-1190 -1214 0
-1190 -1215 0
-1190 -1216 0
-1190 -1217 0
-1190 -1218 0
-1190 -1219 0
-1190 -1220 0
-1190 -1221 0
-1190 -1222 0
-1190 -1223 0
-1190 -1224 0
-1190 -1225 0
-1190 -1226 0
-1190 -1227 0
-1190 -1228 0
-1190 -1229 0
-1190 -1230 0
-1191 -1192 0
-1191 -1193 0
-1191 -1194 0
-1191 -1195 0
-1191 -1196 0
-1191 -1197 0
-1191 -1198 0
-1191 -1199 0
-1191 -1200 0
-1191 -1201 0
-1191 -1202 0
-1191 -1203 0
-1191 -1204 0
-1191 -1205 0
-1191 -1206 0
-1191 -1207 0
-1191 -1208 0
-1191 -1209 0
-1191 -1210 0
-1191 -1211 0
-1191 -1212 0
-1191 -1213 0
-1191 -1214 0
-1191 -1215 0
-1191 -1216 0
-1191 -1217 0
-1191 -1218 0
-1191 -1219 0
-1191 -1220 0
-1191 -1221 0
-1191 -1222 0
-1191 -1223 0
-1191 -1224 0
-1191 -1225 0
-1191 -1226 0
-1191 -1227 0
-1191 -1228 0
-1191 -1229 0
-1191 -1230 0
-1192 -1193 0
-1192 -1194 0
-1192 -1195 0
-1192 -1196 0
-1192 -1197 0
-1192 -1198 0
-1192 -1199 0
-1192 -1200 0
-1192 -1201 0
-1192 -1202 0
-1192 -1203 0
-1192 -1204 0
-1192 -1205 0
-1192 -1206 0
-1192 -1207 0
-1192 -1208 0
-1192 -1209 0
-1192 -1210 0
-1192 -1211 0
-1192 -1212 0
-1192 -1213 0
-1192 -1214 0
-1192 -1215 0
-1192 -1216 0
-1192 -1217 0
-1192 -1218 0
-1192 -1219 0
-1192 -1220 0
-1192 -1221 0
-1192 -1222 0
-1192 -1223 0
-1192 -1224 0
-1192 -1225 0
-1192 -1226 0
-1192 -1227 0
-1192 -1228 0
-1192 -1229 0
-1192 -1230 0
-1193 -1194 0
-1193 -1195 0
-1193 -1196 0
-1193 -1197 0
-1193 -1198 0
-1193 -1199 0
-1193 -1200 0
-1193 -1201 0
-1193 -1202 0
-1193 -1203 0
-1193 -1204 0
-1193 -1205 0
-1193 -1206 0
-1193 -1207 0
-1193 -1208 0
-1193 -1209 0
-1193 -1210 0
-1193 -1211 0
-1193 -1212 0
-1193 -1213 0
-1193 -1214 0
-1193 -1215 0
-1193 -1216 0
-1193 -1217 0
-1193 -1218 0
-1193 -1219 0
-1193 -1220 0
-1193 -1221 0
-1193 -1222 0
-1193 -1223 0
-1193 -1224 0
-1193 -1225 0
-1193 -1226 0
-1193 -1227 0
-1193 -1228 0
-1193 -1229 0
-1193 -1230 0
-1194 -1195 0
-1194 -1196 0
-1194 -1197 0
-1194 -1198 0
-1194 -1199 0
-1194 -1200 0
-1194 -1201 0
-1194 -1202 0
-1194 -1203 0
-1194 -1204 0
-1194 -1205 0
-1194 -1206 0
-1194 -1207 0
-1194 -1208 0
-1194 -1209 0
-1194 -1210 0
-1194 -1211 0
-1194 -1212 0
-1194 -1213 0
-1194 -1214 0
-1194 -1215 0
-1194 -1216 0
-1194 -1217 0
-1194 -1218 0
-1194 -1219 0
-1194 -1220 0
-1194 -1221 0
-1194 -1222 0
-1194 -1223 0
-1194 -1224 0
-1194 -1225 0
-1194 -1226 0
-1194 -1227 0
-1194 -1228 0
-1194 -1229 0
-1194 -1230 0
-1195 -1196 0
-1195 -1197 0
-1195 -1198 0
-1195 -1199 0
-1195 -1200 0
-1195 -1201 0
-1195 -1202 0
-1195 -1203 0
-1195 -1204 0
-1195 -1205 0
-1195 -1206 0
-1195 -1207 0
-1195 -1208 0
-1195 -1209 0
-1195 -1210 0
-1195 -1211 0
-1195 -1212 0
-1195 -1213 0
-1195 -1214 0
-1195 -1215 0
-1195 -1216 0
-1195 -1217 0
-1195 -1218 0
-1195 -1219 0
-1195 -1220 0
-1195 -1221 0
-1195 -1222 0
-1195 -1223 0
-1195 -1224 0
-1195 -1225 0
-1195 -1226 0
-1195 -1227 0
-1195 -1228 0
-1195 -1229 0
-1195 -1230 0
-1196 -1197 0
-1196 -1198 0
-1196 -1199 0
-1196 -1200 0
-1196 -1201 0
-1196 -1202 0
-1196 -1203 0
-1196 -1204 0
-1196 -1205 0
-1196 -1206 0
-1196 -1207 0
-1196 -1208 0
-1196 -1209 0
-1196 -1210 0
-1196 -1211 0
-1196 -1212 0
-1196 -1213 0
-1196 -1214 0
-1196 -1215 0
-1196 -1216 0
-1196 -1217 0
-1196 -1218 0
-1196 -1219 0
-1196 -1220 0
-1196 -1221 0
-1196 -1222 0
-1196 -1223 0
-1196 -1224 0
-1196 -1225 0
-1196 -1226 0
-1196 -1227 0
-1196 -1228 0
-1196 -1229 0
-1196 -1230 0
-1197 -1198 0
-1197 -1199 0
-1197 -1200 0
-1197 -1201 0
-1197 -1202 0
-1197 -1203 0
-1197 -1204 0
-1197 -1205 0
-1197 -1206 0
-1197 -1207 0
-1197 -1208 0
-1197 -1209 0
-1197 -1210 0
-1197 -1211 0
-1197 -1212 0
-1197 -1213 0
-1197 -1214 0
-1197 -1215 0
-1197 -1216 0
-1197 -1217 0
-1197 -1218 0
-1197 -1219 0
-1197 -1220 0
-1197 -1221 0
-1197 -1222 0
-1197 -1223 0
-1197 -1224 0
-1197 -1225 0
-1197 -1226 0
-1197 -1227 0
-1197 -1228 0
-1197 -1229 0
-1197 -1230 0
-1198 -1199 0
-1198 -1200 0
-1198 -1201 0
-1198 -1202 0
-1198 -1203 0
-1198 -1204 0
-1198 -1205 0
-1198 -1206 0
-1198 -1207 0
-1198 -1208 0
-1198 -1209 0
-1198 -1210 0
-1198 -1211 0
-1198 -1212 0
-1198 -1213 0
-1198 -1214 0
-1198 -1215 0
-1198 -1216 0
-1198 -1217 0
-1198 -1218 0
-1198 -1219 0
-1198 -1220 0
-1198 -1221 0
-1198 -1222 0
-1198 -1223 0
-1198 -1224 0
-1198 -1225 0
-1198 -1226 0
-1198 -1227 0
-1198 -1228 0
-1198 -1229 0
-1198 -1230 0
-1199 -1200 0
-1199 -1201 0
-1199 -1202 0
-1199 -1203 0
-1199 -1204 0
-1199 -1205 0
-1199 -1206 0
-1199 -1207 0
-1199 -1208 0
-1199 -1209 0
-1199 -1210 0
-1199 -1211 0
-1199 -1212 0
-1199 -1213 0
-1199 -1214 0
-1199 -1215 0
-1199 -1216 0
-1199 -1217 0
-1199 -1218 0
-1199 -1219 0
-1199 -1220 0
-1199 -1221 0
-1199 -1222 0
-1199 -1223 0
-1199 -1224 0
-1199 -1225 0
-1199 -1226 0
-1199 -1227 0
-1199 -1228 0
-1199 -1229 0
-1199 -1230 0
-1200 -1201 0
-1200 -1202 0
-1200 -1203 0
-1200 -1204 0
-1200 -1205 0
-1200 -1206 0
-1200 -1207 0
-1200 -1208 0
-1200 -1209 0
-1200 -1210 0
-1200 -1211 0
-1200 -1212 0
-1200 -1213 0
-1200 -1214 0
-1200 -1215 0
-1200 -1216 0
-1200 -1217 0
-1200 -1218 0
-1200 -1219 0
-1200 -1220 0
-1200 -1221 0
-1200 -1222 0
-1200 -1223 0
-1200 -1224 0
-1200 -1225 0
-1200 -1226 0
-1200 -1227 0
-1200 -1228 0
-1200 -1229 0
-1200 -1230 0
-1201 -1202 0
-1201 -1203 0
-1201 -1204 0
-1201 -1205 0
-1201 -1206 0
-1201 -1207 0
-1201 -1208 0
-1201 -1209 0
-1201 -1210 0
-1201 -1211 0
-1201 -1212 0
-1201 -1213 0
-1201 -1214 0
-1201 -1215 0
-1201 -1216 0
-1201 -1217 0
-1201 -1218 0
-1201 -1219 0
-1201 -1220 0
-1201 -1221 0
-1201 -1222 0
-1201 -1223 0
-1201 -1224 0
-1201 -1225 0
-1201 -1226 0
-1201 -1227 0
-1201 -1228 0
-1201 -1229 0
-1201 -1230 0
-1202 -1203 0
-1202 -1204 0
-1202 -1205 0
-1202 -1206 0
-1202 -1207 0
-1202 -1208 0
-1202 -1209 0
-1202 -1210 0
-1202 -1211 0
-1202 -1212 0
-1202 -1213 0
-1202 -1214 0
-1202 -1215 0
-1202 -1216 0
-1202 -1217 0
-1202 -1218 0
-1202 -1219 0
-1202 -1220 0
-1202 -1221 0
-1202 -1222 0
-1202 -1223 0
-1202 -1224 0
-1202 -1225 0
-1202 -1226 0
-1202 -1227 0
-1202 -1228 0
-1202 -1229 0
-1202 -1230 0
-1203 -1204 0
-1203 -1205 0
-1203 -1206 0
-1203 -1207 0
-1203 -1208 0
-1203 -1209 0
-1203 -1210 0
-1203 -1211 0
-1203 -1212 0
-1203 -1213 0
-1203 -1214 0
-1203 -1215 0
-1203 -1216 0
-1203 -1217 0
-1203 -1218 0
-1203 -1219 0
-1203 -1220 0
-1203 -1221 0
-1203 -1222 0
-1203 -1223 0
-1203 -1224 0
-1203 -1225 0
-1203 -1226 0
-1203 -1227 0
-1203 -1228 0
-1203 -1229 0
-1203 -1230 0
-1204 -1205 0
-1204 -1206 0
-1204 -1207 0
-1204 -1208 0
-1204 -1209 0
-1204 -1210 0
-1204 -1211 0
-1204 -1212 0
-1204 -1213 0
-1204 -1214 0
-1204 -1215 0
-1204 -1216 0
-1204 -1217 0
-1204 -1218 0
-1204 -1219 0
-1204 -1220 0
-1204 -1221 0
-1204 -1222 0
-1204 -1223 0
-1204 -1224 0
-1204 -1225 0
-1204 -1226 0
-1204 -1227 0
-1204 -1228 0
-1204 -1229 0
-1204 -1230 0
-1205 -1206 0
-1205 -1207 0
-1205 -1208 0
-1205 -1209 0
-1205 -1210 0
-1205 -1211 0
-1205 -1212 0
-1205 -1213 0
-1205 -1214 0
-1205 -1215 0
-1205 -1216 0
-1205 -1217 0
-1205 -1218 0
-1205 -1219 0
-1205 -1220 0
-1205 -1221 0
-1205 -1222 0
-1205 -1223 0
-1205 -1224 0
-1205 -1225 0
-1205 -1226 0
-1205 -1227 0
-1205 -1228 0
-1205 -1229 0
-1205 -1230 0
-1206 -1207 0
-1206 -1208 0
-1206 -1209 0
-1206 -1210 0
-1206 -1211 0
-1206 -1212 0
-1206 -1213 0
-1206 -1214 0
-1206 -1215 0
-1206 -1216 0
-1206 -1217 0
-1206 -1218 0
-1206 -1219 0
-1206 -1220 0
-1206 -1221 0
-1206 -1222 0
-1206 -1223 0
-1206 -1224 0
-1206 -1225 0
-1206 -1226 0
-1206 -1227 0
-1206 -1228 0
-1206 -1229 0
-1206 -1230 0
-1207 -1208 0
-1207 -1209 0
-1207 -1210 0
-1207 -1211 0
-1207 -1212 0
-1207 -1213 0
-1207 -1214 0
-1207 -1215 0
-1207 -1216 0
-1207 -1217 0
-1207 -1218 0
-1207 -1219 0
-1207 -1220 0
-1207 -1221 0
-1207 -1222 0
-1207 -1223 0
-1207 -1224 0
-1207 -1225 0
-1207 -1226 0
-1207 -1227 0
-1207 -1228 0
-1207 -1229 0
-1207 -1230 0
-1208 -1209 0
-1208 -1210 0
-1208 -1211 0
-1208 -1212 0
-1208 -1213 0
-1208 -1214 0
-1208 -1215 0
-1208 -1216 0
-1208 -1217 0
-1208 -1218 0
-1208 -1219 0
-1208 -1220 0
-1208 -1221 0
-1208 -1222 0
-1208 -1223 0
-1208 -1224 0
-1208 -1225 0
-1208 -1226 0
-1208 -1227 0
-1208 -1228 0
-1208 -1229 0
-1208 -1230 0
-1209 -1210 0
-1209 -1211 0
-1209 -1212 0
-1209 -1213 0
-1209 -1214 0
-1209 -1215 0
-1209 -1216 0
-1209 -1217 0
-1209 -1218 0
-1209 -1219 0
-1209 -1220 0
-1209 -1221 0
-1209 -1222 0
-1209 -1223 0
-1209 -1224 0
-1209 -1225 0
-1209 -1226 0
-1209 -1227 0
-1209 -1228 0
-1209 -1229 0
-1209 -1230 0
-1210 -1211 0
-1210 -1212 0
-1210 -1213 0
-1210 -1214 0
-1210 -1215 0
-1210 -1216 0
-1210 -1217 0
-1210 -1218 0
-1210 -1219 0
-1210 -1220 0
-1210 -1221 0
-1210 -1222 0
-1210 -1223 0
-1210 -1224 0
-1210 -1225 0
-1210 -1226 0
-1210 -1227 0
-1210 -1228 0
-1210 -1229 0
-1210 -1230 0
-1211 -1212 0
-1211 -1213 0
-1211 -1214 0
-1211 -1215 0
-1211 -1216 0
-1211 -1217 0
-1211 -1218 0
-1211 -1219 0
-1211 -1220 0
-1211 -1221 0
-1211 -1222 0
-1211 -1223 0
-1211 -1224 0
-1211 -1225 0
-1211 -1226 0
-1211 -1227 0
-1211 -1228 0
-1211 -1229 0
-1211 -1230 0
-1212 -1213 0
-1212 -1214 0
-1212 -1215 0
-1212 -1216 0
-1212 -1217 0
-1212 -1218 0
-1212 -1219 0
-1212 -1220 0
-1212 -1221 0
-1212 -1222 0
-1212 -1223 0
-1212 -1224 0
-1212 -1225 0
-1212 -1226 0
-1212 -1227 0
-1212 -1228 0
-1212 -1229 0
-1212 -1230 0
-1213 -1214 0
-1213 -1215 0
-1213 -1216 0
-1213 -1217 0
-1213 -1218 0
-1213 -1219 0
-1213 -1220 0
-1213 -1221 0
-1213 -1222 0
-1213 -1223 0
-1213 -1224 0
-1213 -1225 0
-1213 -1226 0
-1213 -1227 0
-1213 -1228 0
-1213 -1229 0
-1213 -1230 0
-1214 -1215 0
-1214 -1216 0
-1214 -1217 0
-1214 -1218 0
-1214 -1219 0
-1214 -1220 0
-1214 -1221 0
-1214 -1222 0
-1214 -1223 0
-1214 -1224 0
-1214 -1225 0
-1214 -1226 0
-1214 -1227 0
-1214 -1228 0
-1214 -1229 0
-1214 -1230 0
-1215 -1216 0
-1215 -1217 0
-1215 -1218 0
-1215 -1219 0
-1215 -1220 0
-1215 -1221 0
-1215 -1222 0
-1215 -1223 0
-1215 -1224 0
-1215 -1225 0
-1215 -1226 0
-1215 -1227 0
-1215 -1228 0
-1215 -1229 0
-1215 -1230 0
-1216 -1217 0
-1216 -1218 0
-1216 -1219 0
-1216 -1220 0
-1216 -1221 0
-1216 -1222 0
-1216 -1223 0
-1216 -1224 0
-1216 -1225 0
-1216 -1226 0
-1216 -1227 0
-1216 -1228 0
-1216 -1229 0
-1216 -1230 0
-1217 -1218 0
-1217 -1219 0
-1217 -1220 0
-1217 -1221 0
-1217 -1222 0
-1217 -1223 0
-1217 -1224 0
-1217 -1225 0
-1217 -1226 0
-1217 -1227 0
-1217 -1228 0
-1217 -1229 0
-1217 -1230 0
-1218 -1219 0
-1218 -1220 0
-1218 -1221 0
-1218 -1222 0
-1218 -1223 0
-1218 -1224 0
-1218 -1225 0
-1218 -1226 0
-1218 -1227 0
-1218 -1228 0
-1218 -1229 0
-1218 -1230 0
-1219 -1220 0
-1219 -1221 0
-1219 -1222 0
-1219 -1223 0
-1219 -1224 0
-1219 -1225 0
-1219 -1226 0
-1219 -1227 0
-1219 -1228 0
-1219 -1229 0
-1219 -1230 0
-1220 -1221 0
-1220 -1222 0
-1220 -1223 0
-1220 -1224 0
-1220 -1225 0
-1220 -1226 0
-1220 -1227 0
-1220 -1228 0
-1220 -1229 0
-1220 -1230 0
-1221 -1222 0
-1221 -1223 0
-1221 -1224 0
-1221 -1225 0
-1221 -1226 0
-1221 -1227 0
-1221 -1228 0
-1221 -1229 0
-1221 -1230 0
-1222 -1223 0
-1222 -1224 0
-1222 -1225 0
-1222 -1226 0
-1222 -1227 0
-1222 -1228 0
-1222 -1229 0
-1222 -1230 0
-1223 -1224 0
-1223 -1225 0
-1223 -1226 0
-1223 -1227 0
-1223 -1228 0
-1223 -1229 0
-1223 -1230 0
-1224 -1225 0
-1224 -1226 0
-1224 -1227 0
-1224 -1228 0
-1224 -1229 0
-1224 -1230 0
-1225 -1226 0
-1225 -1227 0
-1225 -1228 0
-1225 -1229 0
-1225 -1230 0
-1226 -1227 0
-1226 -1228 0
-1226 -1229 0
-1226 -1230 0
-1227 -1228 0
-1227 -1229 0
-1227 -1230 0
-1228 -1229 0
-1228 -1230 0
-1229 -1230 0
-448 597 1147 1148 1149 1150 1151 1152 1153 1154 1155 1156 1157 1158 1159 1160 1161 1162 1163 1164 1165 1166 1167 1168 1169 1170 0
448 -597 1147 1148 1149 1150 1151 1152 1153 1154 1155 1156 1157 1158 1159 1160 1161 1162 1163 1164 1165 1166 1167 1168 1169 1170 0
-449 598 1147 1148 1149 1150 1151 1152 1153 1154 1155 1156 1157 1158 1159 1160 1161 1162 1163 1164 1165 1166 1167 1168 1169 1170 0
449 -598 1147 1148 1149 1150 1151 1152 1153 1154 1155 1156 1157 1158 1159 1160 1161 1162 1163 1164 1165 1166 1167 1168 1169 1170 0
-450 599 1147 1148 1149 1150 1151 1152 1153 1154 1155 1156 1157 1158 1159 1160 1161 1162 1163 1164 1165 1166 1167 1168 1169 1170 0
450 -599 1147 1148 1149 1150 1151 1152 1153 1154 1155 1156 1157 1158 1159 1160 1161 1162 1163 1164 1165 1166 1167 1168 1169 1170 0
-451 600 1147 1148 1149 1150 1151 1152 1153 1154 1155 1156 1157 1158 1159 1160 1161 1162 1163 1164 1165 1166 1167 1168 1169 1170 0
451 -600 1147 1148 1149 1150 1151 1152 1153 1154 1155 1156 1157 1158 1159 1160 1161 1162 1163 1164 1165 1166 1167 1168 1169 1170 0
-452 601 1147 1148 1149 1150 1151 1152 1153 1154 1155 1156 1157 1158 1159 1160 1161 1162 1163 1164 1165 1166 1167 1168 1169 1170 0
452 -601 1147 1148 1149 1150 1151 1152 1153 1154 1155 1156 1157 1158 1159 1160 1161 1162 1163 1164 1165 1166 1167 1168 1169 1170 0
-453 602 1147 1148 1149 1150 1151 1152 1153 1154 1155 1156 1157 1158 1159 1160 1161 1162 1163 1164 1165 1166 1167 1168 1169 1170 0
453 -602 1147 1148 1149 1150 1151 1152 1153 1154 1155 1156 1157 1158 1159 1160 1161 1162 1163 1164 1165 1166 1167 1168 1169 1170 0
-454 603 1147 1148 1149 1150 1151 1152 1153 1154 1155 1156 1157 1158 1159 1160 1161 1162 1163 1164 1165 1166 1167 1168 1169 1170 0
454 -603 1147 1148 1149 1150 1151 1152 1153 1154 1155 1156 1157 1158 1159 1160 1161 1162 1163 1164 1165 1166 1167 1168 1169 1170 0
-455 604 1147 1148 1149 1150 1151 1152 1153 1154 1155 1156 1157 1158 1159 1160 1161 1162 1163 1164 1165 1166 1167 1168 1169 1170 0
455 -604 1147 1148 1149 1150 1151 1152 1153 1154 1155 1156 1157 1158 1159 1160 1161 1162 1163 1164 1165 1166 1167 1168 1169 1170 0
-456 605 1147 1148 1149 1150 1151 1152 1153 1154 1155 1156 1157 1158 1159 1160 1161 1162 1163 1164 1165 1166 1167 1168 1169 1170 0
456 -605 1147 1148 1149 1150 1151 1152 1153 1154 1155 1156 1157 1158 1159 1160 1161 1162 1163 1164 1165 1166 1167 1168 1169 1170 0
-457 606 1147 1148 1149 1150 1151 1152 1153 1154 1155 1156 1157 1158 1159 1160 1161 1162 1163 1164 1165 1166 1167 1168 1169 1170 0
457 -606 1147 1148 1149 1150 1151 1152 1153 1154 1155 1156 1157 1158 1159 1160 1161 1162 1163 1164 1165 1166 1167 1168 1169 1170 0
-507 656 1171 1172 1173 1174 1175 1176 1177 1178 1179 1180 1181 1182 1183 1184 1185 1186 1187 1188 1189 1190 1191 1192 1193 1194 0
507 -656 1171 1172 1173 1174 1175 1176 1177 1178 1179 1180 1181 1182 1183 1184 1185 1186 1187 1188 1189 1190 1191 1192 1193 1194 0
-508 657 1171 1172 1173 1174 1175 1176 1177 1178 1179 1180 1181 1182 1183 1184 1185 1186 1187 1188 1189 1190 1191 1192 1193 1194 0
508 -657 1171 1172 1173 1174 1175 1176 1177 1178 1179 1180 1181 1182 1183 1184 1185 1186 1187 1188 1189 1190 1191 1192 1193 1194 0
-509 658 1171 1172 1173 1174 1175 1176 1177 1178 1179 1180 1181 1182 1183 1184 1185 1186 1187 1188 1189 1190 1191 1192 1193 1194 0
509 -658 1171 1172 1173 1174 1175 1176 1177 1178 1179 1180 1181 1182 1183 1184 1185 1186 1187 1188 1189 1190 1191 1192 1193 1194 0
-510 659 1171 1172 1173 1174 1175 1176 1177 1178 1179 1180 1181 1182 1183 1184 1185 1186 1187 1188 1189 1190 1191 1192 1193 1194 0
510 -659 1171 1172 1173 1174 1175 1176 1177 1178 1179 1180 1181 1182 1183 1184 1185 1186 1187 1188 1189 1190 1191 1192 1193 1194 0
-511 660 1171 1172 1173 1174 1175 1176 1177 1178 1179 1180 1181 1182 1183 1184 1185 1186 1187 1188 1189 1190 1191 1192 1193 1194 0
511 -660 1171 1172 1173 1174 1175 1176 1177 1178 1179 1180 1181 1182 1183 1184 1185 1186 1187 1188 1189 1190 1191 1192 1193 1194 0
-512 661 1171 1172 1173 1174 1175 1176 1177 1178 1179 1180 1181 1182 1183 1184 1185 1186 1187 1188 1189 1190 1191 1192 1193 1194 0
512 -661 1171 1172 1173 1174 1175 1176 1177 1178 1179 1180 1181 1182 1183 1184 1185 1186 1187 1188 1189 1190 1191 1192 1193 1194 0
-513 662 1171 1172 1173 1174 1175 1176 1177 1178 1179 1180 1181 1182 1183 1184 1185 1186 1187 1188 1189 1190 1191 1192 1193 1194 0
513 -662 1171 1172 1173 1174 1175 1176 1177 1178 1179 1180 1181 1182 1183 1184 1185 1186 1187 1188 1189 1190 1191 1192 1193 1194 0
-514 663 1171 1172 1173 1174 1175 1176 1177 1178 1179 1180 1181 1182 1183 1184 1185 1186 1187 1188 1189 1190 1191 1192 1193 1194 0
514 -663 1171 1172 1173 1174 1175 1176 1177 1178 1179 1180 1181 1182 1183 1184 1185 1186 1187 1188 1189 1190 1191 1192 1193 1194 0
-515 664 1171 1172 1173 1174 1175 1176 1177 1178 1179 1180 1181 1182 1183 1184 1185 1186 1187 1188 1189 1190 1191 1192 1193 1194 0
515 -664 1171 1172 1173 1174 1175 1176 1177 1178 1179 1180 1181 1182 1183 1184 1185 1186 1187 1188 1189 1190 1191 1192 1193 1194 0
-516 665 1171 1172 1173 1174 1175 1176 1177 1178 1179 1180 1181 1182 1183 1184 1185 1186 1187 1188 1189 1190 1191 1192 1193 1194 0
516 -665 1171 1172 1173 1174 1175 1176 1177 1178 1179 1180 1181 1182 1183 1184 1185 1186 1187 1188 1189 1190 1191 1192 1193 1194 0
-542 691 1195 1196 1197 1198 1199 1200 1201 1202 1203 1204 1205 1206 1207 1208 1209 1210 1211 1212 1213 1214 0
542 -691 1195 1196 1197 1198 1199 1200 1201 1202 1203 1204 1205 1206 1207 1208 1209 1210 1211 1212 1213 1214 0
-543 692 1195 1196 1197 1198 1199 1200 1201 1202 1203 1204 1205 1206 1207 1208 1209 1210 1211 1212 1213 1214 0
543 -692 1195 1196 1197 1198 1199 1200 1201 1202 1203 1204 1205 1206 1207 1208 1209 1210 1211 1212 1213 1214 0
-544 693 1195 1196 1197 1198 1199 1200 1201 1202 1203 1204 1205 1206 1207 1208 1209 1210 1211 1212 1213 1214 0
544 -693 1195 1196 1197 1198 1199 1200 1201 1202 1203 1204 1205 1206 1207 1208 1209 1210 1211 1212 1213 1214 0
-545 694 1195 1196 1197 1198 1199 1200 1201 1202 1203 1204 1205 1206 1207 1208 1209 1210 1211 1212 1213 1214 0
545 -694 1195 1196 1197 1198 1199 1200 1201 1202 1203 1204 1205 1206 1207 1208 1209 1210 1211 1212 1213 1214 0
-546 695 1195 1196 1197 1198 1199 1200 1201 1202 1203 1204 1205 1206 1207 1208 1209 1210 1211 1212 1213 1214 0
546 -695 1195 1196 1197 1198 1199 1200 1201 1202 1203 1204 1205 1206 1207 1208 1209 1210 1211 1212 1213 1214 0
-547 696 1195 1196 1197 1198 1199 1200 1201 1202 1203 1204 1205 1206 1207 1208 1209 1210 1211 1212 1213 1214 0
547 -696 1195 1196 1197 1198 1199 1200 1201 1202 1203 1204 1205 1206 1207 1208 1209 1210 1211 1212 1213 1214 0
-548 697 1195 1196 1197 1198 1199 1200 1201 1202 1203 1204 1205 1206 1207 1208 1209 1210 1211 1212 1213 1214 0
548 -697 1195 1196 1197 1198 1199 1200 1201 1202 1203 1204 1205 1206 1207 1208 1209 1210 1211 1212 1213 1214 0
-549 698 1195 1196 1197 1198 1199 1200 1201 1202 1203 1204 1205 1206 1207 1208 1209 1210 1211 1212 1213 1214 0
549 -698 1195 1196 1197 1198 1199 1200 1201 1202 1203 1204 1205 1206 1207 1208 1209 1210 1211 1212 1213 1214 0
-550 699 1195 1196 1197 1198 1199 1200 1201 1202 1203 1204 1205 1206 1207 1208 1209 1210 1211 1212 1213 1214 0
550 -699 1195 1196 1197 1198 1199 1200 1201 1202 1203 1204 1205 1206 1207 1208 1209 1210 1211 1212 1213 1214 0
-572 721 1215 1216 1217 1218 1219 1220 1221 1222 1223 1224 1225 1226 1227 1228 1229 1230 0
572 -721 1215 1216 1217 1218 1219 1220 1221 1222 1223 1224 1225 1226 1227 1228 1229 1230 0
-573 722 1215 1216 1217 1218 1219 1220 1221 1222 1223 1224 1225 1226 1227 1228 1229 1230 0
573 -722 1215 1216 1217 1218 1219 1220 1221 1222 1223 1224 1225 1226 1227 1228 1229 1230 0
-574 723 1215 1216 1217 1218 1219 1220 1221 1222 1223 1224 1225 1226 1227 1228 1229 1230 0
574 -723 1215 1216 1217 1218 1219 1220 1221 1222 1223 1224 1225 1226 1227 1228 1229 1230 0
-575 724 1215 1216 1217 1218 1219 1220 1221 1222 1223 1224 1225 1226 1227 1228 1229 1230 0
575 -724 1215 1216 1217 1218 1219 1220 1221 1222 1223 1224 1225 1226 1227 1228 1229 1230 0
-576 725 1215 1216 1217 1218 1219 1220 1221 1222 1223 1224 1225 1226 1227 1228 1229 1230 0
576 -725 1215 1216 1217 1218 1219 1220 1221 1222 1223 1224 1225 1226 1227 1228 1229 1230 0
-577 726 1215 1216 1217 1218 1219 1220 1221 1222 1223 1224 1225 1226 1227 1228 1229 1230 0
577 -726 1215 1216 1217 1218 1219 1220 1221 1222 1223 1224 1225 1226 1227 1228 1229 1230 0
-578 727 1215 1216 1217 1218 1219 1220 1221 1222 1223 1224 1225 1226 1227 1228 1229 1230 0
578 -727 1215 1216 1217 1218 1219 1220 1221 1222 1223 1224 1225 1226 1227 1228 1229 1230 0
-579 728 1215 1216 1217 1218 1219 1220 1221 1222 1223 1224 1225 1226 1227 1228 1229 1230 0
579 -728 1215 1216 1217 1218 1219 1220 1221 1222 1223 1224 1225 1226 1227 1228 1229 1230 0
-1231 611 0
-1231 746 0
-1231 760 0
-1231 752 0
-1231 -597 -603 0
-1232 611 0
-1232 747 0
-1232 760 0
-1232 752 0
-1232 -598 -603 0
-1233 611 0
-1233 748 0
-1233 760 0
-1233 752 0
-1233 -599 -603 0
-1234 611 0
-1234 749 0
-1234 760 0
-1234 752 0
-1234 -600 -603 0
-1235 611 0
-1235 750 0
-1235 760 0
-1235 752 0
-1235 -601 -603 0
-1236 611 0
-1236 751 0
-1236 760 0
-1236 752 0
-1236 -602 -603 0
-1237 611 0
-1237 746 0
-1237 760 0
-1237 656 0
-1237 -665 0
-1237 -816 0
-1237 -662 753 0
-1237 -662 -597 -604 0
-1237 -663 754 0
-1237 -663 -597 -605 0
-1237 -664 755 0
-1237 -664 -597 -606 0
-1238 611 0
-1238 747 0
-1238 760 0
-1238 657 0
-1238 -665 0
-1238 -816 0
-1238 -662 753 0
-1238 -662 -598 -604 0
-1238 -663 754 0
-1238 -663 -598 -605 0
-1238 -664 755 0
-1238 -664 -598 -606 0
-1239 611 0
-1239 748 0
-1239 760 0
-1239 658 0
-1239 -665 0
-1239 -816 0
-1239 -662 753 0
-1239 -662 -599 -604 0
-1239 -663 754 0
-1239 -663 -599 -605 0
-1239 -664 755 0
-1239 -664 -599 -606 0
-1240 611 0
-1240 749 0
-1240 760 0
-1240 659 0
-1240 -665 0
-1240 -816 0
-1240 -662 753 0
-1240 -662 -600 -604 0
-1240 -663 754 0
-1240 -663 -600 -605 0
-1240 -664 755 0
-1240 -664 -600 -606 0
-1241 611 0
-1241 750 0
-1241 760 0
-1241 660 0
-1241 -665 0
-1241 -816 0
-1241 -662 753 0
-1241 -662 -601 -604 0
-1241 -663 754 0
-1241 -663 -601 -605 0
-1241 -664 755 0
-1241 -664 -601 -606 0
-1242 611 0
-1242 751 0
-1242 760 0
-1242 661 0
-1242 -665 0
-1242 -816 0
-1242 -662 753 0
-1242 -662 -602 -604 0
-1242 -663 754 0
-1242 -663 -602 -605 0
-1242 -664 755 0
-1242 -664 -602 -606 0
-1243 611 0
-1243 746 0
-1243 760 0
-1243 691 0
-1243 -699 0
-1243 -850 0
-1243 -696 753 0
-1243 -696 -597 -604 0
-1243 -697 754 0
-1243 -697 -597 -605 0
-1243 -698 755 0
-1243 -698 -597 -606 0
-1244 611 0
-1244 747 0
-1244 760 0
-1244 691 692 0
-1244 -699 0
-1244 -850 0
-1244 -696 753 0
-1244 -696 -598 -604 0
-1244 -697 754 0
-1244 -697 -598 -605 0
-1244 -698 755 0
-1244 -698 -598 -606 0
-1245 611 0
-1245 748 0
-1245 760 0
-1245 692 693 0
-1245 -699 0
-1245 -850 0
-1245 -696 753 0
-1245 -696 -599 -604 0
-1245 -697 754 0
-1245 -697 -599 -605 0
-1245 -698 755 0
-1245 -698 -599 -606 0
-1246 611 0
-1246 749 0
-1246 760 0
-1246 693 694 0
-1246 -699 0
-1246 -850 0
-1246 -696 753 0
-1246 -696 -600 -604 0
-1246 -697 754 0
-1246 -697 -600 -605 0
-1246 -698 755 0
-1246 -698 -600 -606 0
-1247 611 0
-1247 750 0
-1247 760 0
-1247 694 695 0
-1247 -699 0
-1247 -850 0
-1247 -696 753 0
-1247 -696 -601 -604 0
-1247 -697 754 0
-1247 -697 -601 -605 0
-1247 -698 755 0
-1247 -698 -601 -606 0
-1248 611 0
-1248 751 0
-1248 760 0
-1248 695 0
-1248 -699 0
-1248 -850 0
-1248 -696 753 0
-1248 -696 -602 -604 0
-1248 -697 754 0
-1248 -697 -602 -605 0
-1248 -698 755 0
-1248 -698 -602 -606 0
-1249 611 0
-1249 746 0
-1249 760 0
-1249 721 0
-1249 -728 0
-1249 -879 0
-1249 -725 753 0
-1249 -725 -597 -604 0
-1249 -726 754 0
-1249 -726 -597 -605 0
-1249 -727 755 0
-1249 -727 -597 -606 0
-1250 611 0
-1250 747 0
-1250 760 0
-1250 721 722 0
-1250 -728 0
-1250 -879 0
-1250 -725 753 0
-1250 -725 -598 -604 0
-1250 -726 754 0
-1250 -726 -598 -605 0
-1250 -727 755 0
-1250 -727 -598 -606 0
-1251 611 0
-1251 748 0
-1251 760 0
-1251 721 722 723 0
-1251 -728 0
-1251 -879 0
-1251 -725 753 0
-1251 -725 -599 -604 0
-1251 -726 754 0
-1251 -726 -599 -605 0
-1251 -727 755 0
-1251 -727 -599 -606 0
-1252 611 0
-1252 749 0
-1252 760 0
-1252 722 723 724 0
-1252 -728 0
-1252 -879 0
-1252 -725 753 0
-1252 -725 -600 -604 0
-1252 -726 754 0
-1252 -726 -600 -605 0
-1252 -727 755 0
-1252 -727 -600 -606 0
-1253 611 0
-1253 750 0
-1253 760 0
-1253 723 724 0
-1253 -728 0
-1253 -879 0
-1253 -725 753 0
-1253 -725 -601 -604 0
-1253 -726 754 0
-1253 -726 -601 -605 0
-1253 -727 755 0
-1253 -727 -601 -606 0
-1254 611 0
-1254 751 0
-1254 760 0
-1254 724 0
-1254 -728 0
-1254 -879 0
-1254 -725 753 0
-1254 -725 -602 -604 0
-1254 -726 754 0
-1254 -726 -602 -605 0
-1254 -727 755 0
-1254 -727 -602 -606 0
-1255 667 0
-1255 805 0
-1255 816 0
-1255 811 0
-1255 -656 -662 0
-1256 667 0
-1256 806 0
-1256 816 0
-1256 811 0
-1256 -657 -662 0
-1257 667 0
-1257 807 0
-1257 816 0
-1257 811 0
-1257 -658 -662 0
-1258 667 0
-1258 808 0
-1258 816 0
-1258 811 0
-1258 -659 -662 0
-1259 667 0
-1259 809 0
-1259 816 0
-1259 811 0
-1259 -660 -662 0
-1260 667 0
-1260 810 0
-1260 816 0
-1260 811 0
-1260 -661 -662 0
-1261 667 0
-1261 805 0
-1261 816 0
-1261 597 0
-1261 -606 0
-1261 -760 0
-1261 -603 812 0
-1261 -603 -656 -663 0
-1261 -604 813 0
-1261 -604 -656 -664 0
-1261 -605 814 0
-1261 -605 -656 -665 0
-1262 667 0
-1262 806 0
-1262 816 0
-1262 598 0
-1262 -606 0
-1262 -760 0
-1262 -603 812 0
-1262 -603 -657 -663 0
-1262 -604 813 0
-1262 -604 -657 -664 0
-1262 -605 814 0
-1262 -605 -657 -665 0
-1263 667 0
-1263 807 0
-1263 816 0
-1263 599 0
-1263 -606 0
-1263 -760 0
-1263 -603 812 0
-1263 -603 -658 -663 0
-1263 -604 813 0
-1263 -604 -658 -664 0
-1263 -605 814 0
-1263 -605 -658 -665 0
-1264 667 0
-1264 808 0
-1264 816 0
-1264 600 0
-1264 -606 0
-1264 -760 0
-1264 -603 812 0
-1264 -603 -659 -663 0
-1264 -604 813 0
-1264 -604 -659 -664 0
-1264 -605 814 0
-1264 -605 -659 -665 0
-1265 667 0
-1265 809 0
-1265 816 0
-1265 601 0
-1265 -606 0
-1265 -760 0
-1265 -603 812 0
-1265 -603 -660 -663 0
-1265 -604 813 0
-1265 -604 -660 -664 0
-1265 -605 814 0
-1265 -605 -660 -665 0
-1266 667 0
-1266 810 0
-1266 816 0
-1266 602 0
-1266 -606 0
-1266 -760 0
-1266 -603 812 0
-1266 -603 -661 -663 0
-1266 -604 813 0
-1266 -604 -661 -664 0
-1266 -605 814 0
-1266 -605 -661 -665 0
-1267 667 0
-1267 805 0
-1267 816 0
-1267 691 0
-1267 -699 0
-1267 -850 0
-1267 -696 812 0
-1267 -696 -656 -663 0
-1267 -697 813 0
-1267 -697 -656 -664 0
-1267 -698 814 0
-1267 -698 -656 -665 0
-1268 667 0
-1268 806 0
-1268 816 0
-1268 691 692 0
-1268 -699 0
-1268 -850 0
-1268 -696 812 0
-1268 -696 -657 -663 0
-1268 -697 813 0
-1268 -697 -657 -664 0
-1268 -698 814 0
-1268 -698 -657 -665 0
-1269 667 0
-1269 807 0
-1269 816 0
-1269 692 693 0
-1269 -699 0
-1269 -850 0
-1269 -696 812 0
-1269 -696 -658 -663 0
-1269 -697 813 0
-1269 -697 -658 -664 0
-1269 -698 814 0
-1269 -698 -658 -665 0
-1270 667 0
-1270 808 0
-1270 816 0
-1270 693 694 0
-1270 -699 0
-1270 -850 0
-1270 -696 812 0
-1270 -696 -659 -663 0
-1270 -697 813 0
-1270 -697 -659 -664 0
-1270 -698 814 0
-1270 -698 -659 -665 0
-1271 667 0
-1271 809 0
-1271 816 0
-1271 694 695 0
-1271 -699 0
-1271 -850 0
-1271 -696 812 0
-1271 -696 -660 -663 0
-1271 -697 813 0
-1271 -697 -660 -664 0
-1271 -698 814 0
-1271 -698 -660 -665 0
-1272 667 0
-1272 810 0
-1272 816 0
-1272 695 0
-1272 -699 0
-1272 -850 0
-1272 -696 812 0
-1272 -696 -661 -663 0
-1272 -697 813 0
-1272 -697 -661 -664 0
-1272 -698 814 0
-1272 -698 -661 -665 0
-1273 667 0
-1273 805 0
-1273 816 0
-1273 721 0
-1273 -728 0
-1273 -879 0
-1273 -725 812 0
-1273 -725 -656 -663 0
-1273 -726 813 0
-1273 -726 -656 -664 0
-1273 -727 814 0
-1273 -727 -656 -665 0
-1274 667 0
-1274 806 0
-1274 816 0
-1274 721 722 0
-1274 -728 0
-1274 -879 0
-1274 -725 812 0
-1274 -725 -657 -663 0
-1274 -726 813 0
-1274 -726 -657 -664 0
-1274 -727 814 0
-1274 -727 -657 -665 0
-1275 667 0
-1275 807 0
-1275 816 0
-1275 721 722 723 0
-1275 -728 0
-1275 -879 0
-1275 -725 812 0
-1275 -725 -658 -663 0
-1275 -726 813 0
-1275 -726 -658 -664 0
-1275 -727 814 0
-1275 -727 -658 -665 0
-1276 667 0
-1276 808 0
-1276 816 0
-1276 722 723 724 0
-1276 -728 0
-1276 -879 0
-1276 -725 812 0
-1276 -725 -659 -663 0
-1276 -726 813 0
-1276 -726 -659 -664 0
-1276 -727 814 0
-1276 -727 -659 -665 0
-1277 667 0
-1277 809 0
-1277 816 0
-1277 723 724 0
-1277 -728 0
-1277 -879 0
-1277 -725 812 0
-1277 -725 -660 -663 0
-1277 -726 813 0
-1277 -726 -660 -664 0
-1277 -727 814 0
-1277 -727 -660 -665 0
-1278 667 0
-1278 810 0
-1278 816 0
-1278 724 0
-1278 -728 0
-1278 -879 0
-1278 -725 812 0
-1278 -725 -661 -663 0
-1278 -726 813 0
-1278 -726 -661 -664 0
-1278 -727 814 0
-1278 -727 -661 -665 0
-1279 701 0
-1279 840 0
-1279 850 0
-1279 845 0
-1279 -691 -696 0
-1280 701 0
-1280 841 0
-1280 850 0
-1280 845 0
-1280 -692 -696 0
-1281 701 0
-1281 842 0
-1281 850 0
-1281 845 0
-1281 -693 -696 0
-1282 701 0
-1282 843 0
-1282 850 0
-1282 845 0
-1282 -694 -696 0
-1283 701 0
-1283 844 0
-1283 850 0
-1283 845 0
-1283 -695 -696 0
-1284 701 0
-1284 840 0
-1284 850 0
-1284 597 598 0
-1284 -606 0
-1284 -760 0
-1284 -603 846 0
-1284 -603 -691 -697 0
-1284 -604 847 0
-1284 -604 -691 -698 0
-1284 -605 848 0
-1284 -605 -691 -699 0
-1285 701 0
-1285 841 0
-1285 850 0
-1285 598 599 0
-1285 -606 0
-1285 -760 0
-1285 -603 846 0
-1285 -603 -692 -697 0
-1285 -604 847 0
-1285 -604 -692 -698 0
-1285 -605 848 0
-1285 -605 -692 -699 0
-1286 701 0
-1286 842 0
-1286 850 0
-1286 599 600 0
-1286 -606 0
-1286 -760 0
-1286 -603 846 0
-1286 -603 -693 -697 0
-1286 -604 847 0
-1286 -604 -693 -698 0
-1286 -605 848 0
-1286 -605 -693 -699 0
-1287 701 0
-1287 843 0
-1287 850 0
-1287 600 601 0
-1287 -606 0
-1287 -760 0
-1287 -603 846 0
-1287 -603 -694 -697 0
-1287 -604 847 0
-1287 -604 -694 -698 0
-1287 -605 848 0
-1287 -605 -694 -699 0
-1288 701 0
-1288 844 0
-1288 850 0
-1288 601 602 0
-1288 -606 0
-1288 -760 0
-1288 -603 846 0
-1288 -603 -695 -697 0
-1288 -604 847 0
-1288 -604 -695 -698 0
-1288 -605 848 0
-1288 -605 -695 -699 0
-1289 701 0
-1289 840 0
-1289 850 0
-1289 656 657 0
-1289 -665 0
-1289 -816 0
-1289 -662 846 0
-1289 -662 -691 -697 0
-1289 -663 847 0
-1289 -663 -691 -698 0
-1289 -664 848 0
-1289 -664 -691 -699 0
-1290 701 0
-1290 841 0
-1290 850 0
-1290 657 658 0
-1290 -665 0
-1290 -816 0
-1290 -662 846 0
-1290 -662 -692 -697 0
-1290 -663 847 0
-1290 -663 -692 -698 0
-1290 -664 848 0
-1290 -664 -692 -699 0
-1291 701 0
-1291 842 0
-1291 850 0
-1291 658 659 0
-1291 -665 0
-1291 -816 0
-1291 -662 846 0
-1291 -662 -693 -697 0
-1291 -663 847 0
-1291 -663 -693 -698 0
-1291 -664 848 0
-1291 -664 -693 -699 0
-1292 701 0
-1292 843 0
-1292 850 0
-1292 659 660 0
-1292 -665 0
-1292 -816 0
-1292 -662 846 0
-1292 -662 -694 -697 0
-1292 -663 847 0
-1292 -663 -694 -698 0
-1292 -664 848 0
-1292 -664 -694 -699 0
-1293 701 0
-1293 844 0
-1293 850 0
-1293 660 661 0
-1293 -665 0
-1293 -816 0
-1293 -662 846 0
-1293 -662 -695 -697 0
-1293 -663 847 0
-1293 -663 -695 -698 0
-1293 -664 848 0
-1293 -664 -695 -699 0
-1294 701 0
-1294 840 0
-1294 850 0
-1294 721 722 0
-1294 -728 0
-1294 -879 0
-1294 -725 846 0
-1294 -725 -691 -697 0
-1294 -726 847 0
-1294 -726 -691 -698 0
-1294 -727 848 0
-1294 -727 -691 -699 0
-1295 701 0
-1295 841 0
-1295 850 0
-1295 721 722 723 0
-1295 -728 0
-1295 -879 0
-1295 -725 846 0
-1295 -725 -692 -697 0
-1295 -726 847 0
-1295 -726 -692 -698 0
-1295 -727 848 0
-1295 -727 -692 -699 0
-1296 701 0
-1296 842 0
-1296 850 0
-1296 721 722 723 724 0
-1296 -728 0
-1296 -879 0
-1296 -725 846 0
-1296 -725 -693 -697 0
-1296 -726 847 0
-1296 -726 -693 -698 0
-1296 -727 848 0
-1296 -727 -693 -699 0
-1297 701 0
-1297 843 0
-1297 850 0
-1297 722 723 724 0
-1297 -728 0
-1297 -879 0
-1297 -725 846 0
-1297 -725 -694 -697 0
-1297 -726 847 0
-1297 -726 -694 -698 0
-1297 -727 848 0
-1297 -727 -694 -699 0
-1298 701 0
-1298 844 0
-1298 850 0
-1298 723 724 0
-1298 -728 0
-1298 -879 0
-1298 -725 846 0
-1298 -725 -695 -697 0
-1298 -726 847 0
-1298 -726 -695 -698 0
-1298 -727 848 0
-1298 -727 -695 -699 0
-1299 730 0
-1299 870 0
-1299 879 0
-1299 874 0
-1299 -721 -725 0
-1300 730 0
-1300 871 0
-1300 879 0
-1300 874 0
-1300 -722 -725 0
-1301 730 0
-1301 872 0
-1301 879 0
-1301 874 0
-1301 -723 -725 0
-1302 730 0
-1302 873 0
-1302 879 0
-1302 874 0
-1302 -724 -725 0
-1303 730 0
-1303 870 0
-1303 879 0
-1303 597 598 599 0
-1303 -606 0
-1303 -760 0
-1303 -603 875 0
-1303 -603 -721 -726 0
-1303 -604 876 0
-1303 -604 -721 -727 0
-1303 -605 877 0
-1303 -605 -721 -728 0
-1304 730 0
-1304 871 0
-1304 879 0
-1304 598 599 600 0
-1304 -606 0
-1304 -760 0
-1304 -603 875 0
-1304 -603 -722 -726 0
-1304 -604 876 0
-1304 -604 -722 -727 0
-1304 -605 877 0
-1304 -605 -722 -728 0
-1305 730 0
-1305 872 0
-1305 879 0
-1305 599 600 601 0
-1305 -606 0
-1305 -760 0
-1305 -603 875 0
-1305 -603 -723 -726 0
-1305 -604 876 0
-1305 -604 -723 -727 0
-1305 -605 877 0
-1305 -605 -723 -728 0
-1306 730 0
-1306 873 0
-1306 879 0
-1306 600 601 602 0
-1306 -606 0
-1306 -760 0
-1306 -603 875 0
-1306 -603 -724 -726 0
-1306 -604 876 0
-1306 -604 -724 -727 0
-1306 -605 877 0
-1306 -605 -724 -728 0
-1307 730 0
-1307 870 0
-1307 879 0
-1307 656 657 658 0
-1307 -665 0
-1307 -816 0
-1307 -662 875 0
-1307 -662 -721 -726 0
-1307 -663 876 0
-1307 -663 -721 -727 0
-1307 -664 877 0
-1307 -664 -721 -728 0
-1308 730 0
-1308 871 0
-1308 879 0
-1308 657 658 659 0
-1308 -665 0
-1308 -816 0
-1308 -662 875 0
-1308 -662 -722 -726 0
-1308 -663 876 0
-1308 -663 -722 -727 0
-1308 -664 877 0
-1308 -664 -722 -728 0
-1309 730 0
-1309 872 0
-1309 879 0
-1309 658 659 660 0
-1309 -665 0
-1309 -816 0
-1309 -662 875 0
-1309 -662 -723 -726 0
-1309 -663 876 0
-1309 -663 -723 -727 0
-1309 -664 877 0
-1309 -664 -723 -728 0
-1310 730 0
-1310 873 0
-1310 879 0
-1310 659 660 661 0
-1310 -665 0
-1310 -816 0
-1310 -662 875 0
-1310 -662 -724 -726 0
-1310 -663 876 0
-1310 -663 -724 -727 0
-1310 -664 877 0
-1310 -664 -724 -728 0
-1311 730 0
-1311 870 0
-1311 879 0
-1311 691 692 693 0
-1311 -699 0
-1311 -850 0
-1311 -696 875 0
-1311 -696 -721 -726 0
-1311 -697 876 0
-1311 -697 -721 -727 0
-1311 -698 877 0
-1311 -698 -721 -728 0
-1312 730 0
-1312 871 0
-1312 879 0
-1312 691 692 693 694 0
-1312 -699 0
-1312 -850 0
-1312 -696 875 0
-1312 -696 -722 -726 0
-1312 -697 876 0
-1312 -697 -722 -727 0
-1312 -698 877 0
-1312 -698 -722 -728 0
-1313 730 0
-1313 872 0
-1313 879 0
-1313 692 693 694 695 0
-1313 -699 0
-1313 -850 0
-1313 -696 875 0
-1313 -696 -723 -726 0
-1313 -697 876 0
-1313 -697 -723 -727 0
-1313 -698 877 0
-1313 -698 -723 -728 0
-1314 730 0
-1314 873 0
-1314 879 0
-1314 693 694 695 0
-1314 -699 0
-1314 -850 0
-1314 -696 875 0
-1314 -696 -724 -726 0
-1314 -697 876 0
-1314 -697 -724 -727 0
-1314 -698 877 0
-1314 -698 -724 -728 0
1231 1232 1233 1234 1235 1236 1237 1238 1239 1240 1241 1242 1243 1244 1245 1246 1247 1248 1249 1250 1251 1252 1253 1254 1255 1256 1257 1258 1259 1260 1261 1262 1263 1264 1265 1266 1267 1268 1269 1270 1271 1272 1273 1274 1275 1276 1277 1278 1279 1280 1281 1282 1283 1284 1285 1286 1287 1288 1289 1290 1291 1292 1293 1294 1295 1296 1297 1298 1299 1300 1301 1302 1303 1304 1305 1306 1307 1308 1309 1310 1311 1312 1313 1314 0
-1231 -1232 0
-1231 -1233 0
-1231 -1234 0
-1231 -1235 0
-1231 -1236 0
-1231 -1237 0
-1231 -1238 0
-1231 -1239 0
-1231 -1240 0
-1231 -1241 0
-1231 -1242 0
-1231 -1243 0
-1231 -1244 0
-1231 -1245 0
-1231 -1246 0
-1231 -1247 0
-1231 -1248 0
-1231 -1249 0
-1231 -1250 0
-1231 -1251 0
-1231 -1252 0
-1231 -1253 0
-1231 -1254 0
-1231 -1255 0
-1231 -1256 0
-1231 -1257 0
-1231 -1258 0
-1231 -1259 0
-1231 -1260 0
-1231 -1261 0
-1231 -1262 0
-1231 -1263 0
-1231 -1264 0
-1231 -1265 0
-1231 -1266 0
-1231 -1267 0
-1231 -1268 0
-1231 -1269 0
-1231 -1270 0
-1231 -1271 0
-1231 -1272 0
-1231 -1273 0
-1231 -1274 0
-1231 -1275 0
-1231 -1276 0
-1231 -1277 0
-1231 -1278 0
-1231 -1279 0
-1231 -1280 0
-1231 -1281 0
-1231 -1282 0
-1231 -1283 0
-1231 -1284 0
-1231 -1285 0
-1231 -1286 0
-1231 -1287 0
-1231 -1288 0
-1231 -1289 0
-1231 -1290 0
-1231 -1291 0
-1231 -1292 0
-1231 -1293 0
-1231 -1294 0
-1231 -1295 0
-1231 -1296 0
-1231 -1297 0
-1231 -1298 0
-1231 -1299 0
-1231 -1300 0
-1231 -1301 0
-1231 -1302 0
-1231 -1303 0
-1231 -1304 0
-1231 -1305 0
-1231 -1306 0
-1231 -1307 0
-1231 -1308 0
-1231 -1309 0
-1231 -1310 0
-1231 -1311 0
-1231 -1312 0
-1231 -1313 0
-1231 -1314 0
-1232 -1233 0
-1232 -1234 0
-1232 -1235 0
-1232 -1236 0
-1232 -1237 0
-1232 -1238 0
-1232 -1239 0
-1232 -1240 0
-1232 -1241 0
-1232 -1242 0
-1232 -1243 0
-1232 -1244 0
-1232 -1245 0
-1232 -1246 0
-1232 -1247 0
-1232 -1248 0
-1232 -1249 0
-1232 -1250 0
-1232 -1251 0
-1232 -1252 0
-1232 -1253 0
-1232 -1254 0
-1232 -1255 0
-1232 -1256 0
-1232 -1257 0
-1232 -1258 0
-1232 -1259 0
-1232 -1260 0
-1232 -1261 0
-1232 -1262 0
-1232 -1263 0
-1232 -1264 0
-1232 -1265 0
-1232 -1266 0
-1232 -1267 0
-1232 -1268 0
-1232 -1269 0
-1232 -1270 0
-1232 -1271 0
-1232 -1272 0
-1232 -1273 0
-1232 -1274 0
-1232 -1275 0
-1232 -1276 0
-1232 -1277 0
-1232 -1278 0
-1232 -1279 0
-1232 -1280 0
-1232 -1281 0
-1232 -1282 0
-1232 -1283 0
-1232 -1284 0
-1232 -1285 0
-1232 -1286 0
-1232 -1287 0
-1232 -1288 0
-1232 -1289 0
-1232 -1290 0
-1232 -1291 0
-1232 -1292 0
-1232 -1293 0
-1232 -1294 0
-1232 -1295 0
-1232 -1296 0
-1232 -1297 0
-1232 -1298 0
-1232 -1299 0
-1232 -1300 0
-1232 -1301 0
-1232 -1302 0
-1232 -1303 0
-1232 -1304 0
-1232 -1305 0
-1232 -1306 0
-1232 -1307 0
-1232 -1308 0
-1232 -1309 0
-1232 -1310 0
-1232 -1311 0
-1232 -1312 0
-1232 -1313 0
-1232 -1314 0
-1233 -1234 0
-1233 -1235 0
-1233 -1236 0
-1233 -1237 0
-1233 -1238 0
-1233 -1239 0
-1233 -1240 0
-1233 -1241 0
-1233 -1242 0
-1233 -1243 0
-1233 -1244 0
-1233 -1245 0
-1233 -1246 0
-1233 -1247 0
-1233 -1248 0
-1233 -1249 0
-1233 -1250 0
-1233 -1251 0
-1233 -1252 0
-1233 -1253 0
-1233 -1254 0
-1233 -1255 0
-1233 -1256 0
-1233 -1257 0
-1233 -1258 0
-1233 -1259 0
-1233 -1260 0
-1233 -1261 0
-1233 -1262 0
-1233 -1263 0
-1233 -1264 0
-1233 -1265 0
-1233 -1266 0
-1233 -1267 0
-1233 -1268 0
-1233 -1269 0
-1233 -1270 0
-1233 -1271 0
-1233 -1272 0
-1233 -1273 0
-1233 -1274 0
-1233 -1275 0
-1233 -1276 0
-1233 -1277 0
-1233 -1278 0
-1233 -1279 0
-1233 -1280 0
-1233 -1281 0
-1233 -1282 0
-1233 -1283 0
-1233 -1284 0
-1233 -1285 0
-1233 -1286 0
-1233 -1287 0
-1233 -1288 0
-1233 -1289 0
-1233 -1290 0
-1233 -1291 0
-1233 -1292 0
-1233 -1293 0
-1233 -1294 0
-1233 -1295 0
-1233 -1296 0
-1233 -1297 0
-1233 -1298 0
-1233 -1299 0
-1233 -1300 0
-1233 -1301 0
-1233 -1302 0
-1233 -1303 0
-1233 -1304 0
-1233 -1305 0
-1233 -1306 0
-1233 -1307 0
-1233 -1308 0
-1233 -1309 0
-1233 -1310 0
-1233 -1311 0
-1233 -1312 0
-1233 -1313 0
-1233 -1314 0
-1234 -1235 0
-1234 -1236 0
-1234 -1237 0
-1234 -1238 0
-1234 -1239 0
-1234 -1240 0
-1234 -1241 0
-1234 -1242 0
-1234 -1243 0
-1234 -1244 0
-1234 -1245 0
-1234 -1246 0
-1234 -1247 0
-1234 -1248 0
-1234 -1249 0
-1234 -1250 0
-1234 -1251 0
-1234 -1252 0
-1234 -1253 0
-1234 -1254 0
-1234 -1255 0
-1234 -1256 0
-1234 -1257 0
-1234 -1258 0
-1234 -1259 0
-1234 -1260 0
-1234 -1261 0
-1234 -1262 0
-1234 -1263 0
-1234 -1264 0
-1234 -1265 0
-1234 -1266 0
-1234 -1267 0
-1234 -1268 0
-1234 -1269 0
-1234 -1270 0
-1234 -1271 0
-1234 -1272 0
-1234 -1273 0
-1234 -1274 0
-1234 -1275 0
-1234 -1276 0
-1234 -1277 0
-1234 -1278 0
-1234 -1279 0
-1234 -1280 0
-1234 -1281 0
-1234 -1282 0
-1234 -1283 0
-1234 -1284 0
-1234 -1285 0
-1234 -1286 0
-1234 -1287 0
-1234 -1288 0
-1234 -1289 0
-1234 -1290 0
-1234 -1291 0
-1234 -1292 0
-1234 -1293 0
-1234 -1294 0
-1234 -1295 0
-1234 -1296 0
-1234 -1297 0
-1234 -1298 0
-1234 -1299 0
-1234 -1300 0
-1234 -1301 0
-1234 -1302 0
-1234 -1303 0
-1234 -1304 0
-1234 -1305 0
-1234 -1306 0
-1234 -1307 0
-1234 -1308 0
-1234 -1309 0
-1234 -1310 0
-1234 -1311 0
-1234 -1312 0
-1234 -1313 0
-1234 -1314 0
-1235 -1236 0
-1235 -1237 0
-1235 -1238 0
-1235 -1239 0
-1235 -1240 0
-1235 -1241 0
-1235 -1242 0
-1235 -1243 0
-1235 -1244 0
-1235 -1245 0
-1235 -1246 0
-1235 -1247 0
-1235 -1248 0
-1235 -1249 0
-1235 -1250 0
-1235 -1251 0
-1235 -1252 0
-1235 -1253 0
-1235 -1254 0
-1235 -1255 0
-1235 -1256 0
-1235 -1257 0
-1235 -1258 0
-1235 -1259 0
-1235 -1260 0
-1235 -1261 0
-1235 -1262 0
-1235 -1263 0
-1235 -1264 0
-1235 -1265 0
-1235 -1266 0
-1235 -1267 0
-1235 -1268 0
-1235 -1269 0
-1235 -1270 0
-1235 -1271 0
-1235 -1272 0
-1235 -1273 0
-1235 -1274 0
-1235 -1275 0
-1235 -1276 0
-1235 -1277 0
-1235 -1278 0
-1235 -1279 0
-1235 -1280 0
-1235 -1281 0
-1235 -1282 0
-1235 -1283 0
-1235 -1284 0
-1235 -1285 0
-1235 -1286 0
-1235 -1287 0
-1235 -1288 0
-1235 -1289 0
-1235 -1290 0
-1235 -1291 0
-1235 -1292 0
-1235 -1293 0
-1235 -1294 0
-1235 -1295 0
-1235 -1296 0
-1235 -1297 0
-1235 -1298 0
-1235 -1299 0
-1235 -1300 0
-1235 -1301 0
-1235 -1302 0
-1235 -1303 0
-1235 -1304 0
-1235 -1305 0
-1235 -1306 0
-1235 -1307 0
-1235 -1308 0
-1235 -1309 0
-1235 -1310 0
-1235 -1311 0
-1235 -1312 0
-1235 -1313 0
-1235 -1314 0
-1236 -1237 0
-1236 -1238 0
-1236 -1239 0
-1236 -1240 0
-1236 -1241 0
-1236 -1242 0
-1236 -1243 0
-1236 -1244 0
-1236 -1245 0
-1236 -1246 0
-1236 -1247 0
-1236 -1248 0
-1236 -1249 0
-1236 -1250 0
-1236 -1251 0
-1236 -1252 0
-1236 -1253 0
-1236 -1254 0
-1236 -1255 0
-1236 -1256 0
-1236 -1257 0
-1236 -1258 0
-1236 -1259 0
-1236 -1260 0
-1236 -1261 0
-1236 -1262 0
-1236 -1263 0
-1236 -1264 0
-1236 -1265 0
-1236 -1266 0
-1236 -1267 0
-1236 -1268 0
-1236 -1269 0
-1236 -1270 0
-1236 -1271 0
-1236 -1272 0
-1236 -1273 0
-1236 -1274 0
-1236 -1275 0
-1236 -1276 0
-1236 -1277 0
-1236 -1278 0
-1236 -1279 0
-1236 -1280 0
-1236 -1281 0
-1236 -1282 0
-1236 -1283 0
-1236 -1284 0
-1236 -1285 0
-1236 -1286 0
-1236 -1287 0
-1236 -1288 0
-1236 -1289 0
-1236 -1290 0
-1236 -1291 0
-1236 -1292 0
-1236 -1293 0
-1236 -1294 0
-1236 -1295 0
-1236 -1296 0
-1236 -1297 0
-1236 -1298 0
-1236 -1299 0
-1236 -1300 0
-1236 -1301 0
-1236 -1302 0
-1236 -1303 0
-1236 -1304 0
-1236 -1305 0
-1236 -1306 0
-1236 -1307 0
-1236 -1308 0
-1236 -1309 0
-1236 -1310 0
-1236 -1311 0
-1236 -1312 0
-1236 -1313 0
-1236 -1314 0
-1237 -1238 0
-1237 -1239 0
-1237 -1240 0
-1237 -1241 0
-1237 -1242 0
-1237 -1243 0
-1237 -1244 0
-1237 -1245 0
-1237 -1246 0
-1237 -1247 0
-1237 -1248 0
-1237 -1249 0
-1237 -1250 0
-1237 -1251 0
-1237 -1252 0
-1237 -1253 0
-1237 -1254 0
-1237 -1255 0
-1237 -1256 0
-1237 -1257 0
-1237 -1258 0
-1237 -1259 0
-1237 -1260 0
-1237 -1261 0
-1237 -1262 0
-1237 -1263 0
-1237 -1264 0
-1237 -1265 0
-1237 -1266 0
-1237 -1267 0
-1237 -1268 0
-1237 -1269 0
-1237 -1270 0
-1237 -1271 0
-1237 -1272 0
-1237 -1273 0
-1237 -1274 0
-1237 -1275 0
-1237 -1276 0
-1237 -1277 0
-1237 -1278 0
-1237 -1279 0
-1237 -1280 0
-1237 -1281 0
-1237 -1282 0
-1237 -1283 0
-1237 -1284 0
-1237 -1285 0
-1237 -1286 0
-1237 -1287 0
-1237 -1288 0
-1237 -1289 0
-1237 -1290 0
-1237 -1291 0
-1237 -1292 0
-1237 -1293 0
-1237 -1294 0
-1237 -1295 0
-1237 -1296 0
-1237 -1297 0
-1237 -1298 0
-1237 -1299 0
-1237 -1300 0
-1237 -1301 0
-1237 -1302 0
-1237 -1303 0
-1237 -1304 0
-1237 -1305 0
-1237 -1306 0
-1237 -1307 0
-1237 -1308 0
-1237 -1309 0
-1237 -1310 0
-1237 -1311 0
-1237 -1312 0
-1237 -1313 0
-1237 -1314 0
-1238 -1239 0
-1238 -1240 0
-1238 -1241 0
-1238 -1242 0
-1238 -1243 0
-1238 -1244 0
-1238 -1245 0
-1238 -1246 0
-1238 -1247 0
-1238 -1248 0
-1238 -1249 0
-1238 -1250 0
-1238 -1251 0
-1238 -1252 0
-1238 -1253 0
-1238 -1254 0
-1238 -1255 0
-1238 -1256 0
-1238 -1257 0
-1238 -1258 0
-1238 -1259 0
-1238 -1260 0
-1238 -1261 0
-1238 -1262 0
-1238 -1263 0
-1238 -1264 0
-1238 -1265 0
-1238 -1266 0
-1238 -1267 0
-1238 -1268 0
-1238 -1269 0
-1238 -1270 0
-1238 -1271 0
-1238 -1272 0
-1238 -1273 0
-1238 -1274 0
-1238 -1275 0
-1238 -1276 0
-1238 -1277 0
-1238 -1278 0
-1238 -1279 0
-1238 -1280 0
-1238 -1281 0
-1238 -1282 0
-1238 -1283 0
-1238 -1284 0
-1238 -1285 0
-1238 -1286 0
-1238 -1287 0
-1238 -1288 0
-1238 -1289 0
-1238 -1290 0
-1238 -1291 0
-1238 -1292 0
-1238 -1293 0
-1238 -1294 0
-1238 -1295 0
-1238 -1296 0
-1238 -1297 0
-1238 -1298 0
-1238 -1299 0
-1238 -1300 0
-1238 -1301 0
-1238 -1302 0
-1238 -1303 0
-1238 -1304 0
-1238 -1305 0
-1238 -1306 0
-1238 -1307 0
-1238 -1308 0
-1238 -1309 0
-1238 -1310 0
-1238 -1311 0
-1238 -1312 0
-1238 -1313 0
-1238 -1314 0
-1239 -1240 0
-1239 -1241 0
-1239 -1242 0
-1239 -1243 0
-1239 -1244 0
-1239 -1245 0
-1239 -1246 0
-1239 -1247 0
-1239 -1248 0
-1239 -1249 0
-1239 -1250 0
-1239 -1251 0
-1239 -1252 0
-1239 -1253 0
-1239 -1254 0
-1239 -1255 0
-1239 -1256 0
-1239 -1257 0
-1239 -1258 0
-1239 -1259 0
-1239 -1260 0
-1239 -1261 0
-1239 -1262 0
-1239 -1263 0
-1239 -1264 0
-1239 -1265 0
-1239 -1266 0
-1239 -1267 0
-1239 -1268 0
-1239 -1269 0
-1239 -1270 0
-1239 -1271 0
-1239 -1272 0
-1239 -1273 0
-1239 -1274 0
-1239 -1275 0
-1239 -1276 0
-1239 -1277 0
-1239 -1278 0
-1239 -1279 0
-1239 -1280 0
-1239 -1281 0
-1239 -1282 0
-1239 -1283 0
-1239 -1284 0
-1239 -1285 0
-1239 -1286 0
-1239 -1287 0
-1239 -1288 0
-1239 -1289 0
-1239 -1290 0
-1239 -1291 0
-1239 -1292 0
-1239 -1293 0
-1239 -1294 0
-1239 -1295 0
-1239 -1296 0
-1239 -1297 0
-1239 -1298 0
-1239 -1299 0
-1239 -1300 0
-1239 -1301 0
-1239 -1302 0
-1239 -1303 0
-1239 -1304 0
-1239 -1305 0
-1239 -1306 0
-1239 -1307 0
-1239 -1308 0
-1239 -1309 0
-1239 -1310 0
-1239 -1311 0
-1239 -1312 0
-1239 -1313 0
-1239 -1314 0
-1240 -1241 0
-1240 -1242 0
-1240 -1243 0
-1240 -1244 0
-1240 -1245 0
-1240 -1246 0
-1240 -1247 0
-1240 -1248 0
-1240 -1249 0
-1240 -1250 0
-1240 -1251 0
-1240 -1252 0
-1240 -1253 0
-1240 -1254 0
-1240 -1255 0
-1240 -1256 0
-1240 -1257 0
-1240 -1258 0
-1240 -1259 0
-1240 -1260 0
-1240 -1261 0
-1240 -1262 0
-1240 -1263 0
-1240 -1264 0
-1240 -1265 0
-1240 -1266 0
-1240 -1267 0
-1240 -1268 0
-1240 -1269 0
-1240 -1270 0
-1240 -1271 0
-1240 -1272 0
-1240 -1273 0
-1240 -1274 0
-1240 -1275 0
-1240 -1276 0
-1240 -1277 0
-1240 -1278 0
-1240 -1279 0
-1240 -1280 0
-1240 -1281 0
-1240 -1282 0
-1240 -1283 0
-1240 -1284 0
-1240 -1285 0
-1240 -1286 0
-1240 -1287 0
-1240 -1288 0
-1240 -1289 0
-1240 -1290 0
-1240 -1291 0
-1240 -1292 0
-1240 -1293 0
-1240 -1294 0
-1240 -1295 0
-1240 -1296 0
-1240 -1297 0
-1240 -1298 0
-1240 -1299 0
-1240 -1300 0
-1240 -1301 0
-1240 -1302 0
-1240 -1303 0
-1240 -1304 0
-1240 -1305 0
-1240 -1306 0
-1240 -1307 0
-1240 -1308 0
-1240 -1309 0
-1240 -1310 0
-1240 -1311 0
-1240 -1312 0
-1240 -1313 0
-1240 -1314 0
-1241 -1242 0
-1241 -1243 0
-1241 -1244 0
-1241 -1245 0
-1241 -1246 0
-1241 -1247 0
-1241 -1248 0
-1241 -1249 0
-1241 -1250 0
-1241 -1251 0
-1241 -1252 0
-1241 -1253 0
-1241 -1254 0
-1241 -1255 0
-1241 -1256 0
-1241 -1257 0
-1241 -1258 0
-1241 -1259 0
-1241 -1260 0
-1241 -1261 0
-1241 -1262 0
-1241 -1263 0
-1241 -1264 0
-1241 -1265 0
-1241 -1266 0
-1241 -1267 0
-1241 -1268 0
-1241 -1269 0
-1241 -1270 0
-1241 -1271 0
-1241 -1272 0
-1241 -1273 0
-1241 -1274 0
-1241 -1275 0
-1241 -1276 0
-1241 -1277 0
-1241 -1278 0
-1241 -1279 0
-1241 -1280 0
-1241 -1281 0
-1241 -1282 0
-1241 -1283 0
-1241 -1284 0
-1241 -1285 0
-1241 -1286 0
-1241 -1287 0
-1241 -1288 0
-1241 -1289 0
-1241 -1290 0
-1241 -1291 0
-1241 -1292 0
-1241 -1293 0
-1241 -1294 0
-1241 -1295 0
-1241 -1296 0
-1241 -1297 0
-1241 -1298 0
-1241 -1299 0
-1241 -1300 0
-1241 -1301 0
-1241 -1302 0
-1241 -1303 0
-1241 -1304 0
-1241 -1305 0
-1241 -1306 0
-1241 -1307 0
-1241 -1308 0
-1241 -1309 0
-1241 -1310 0
-1241 -1311 0
-1241 -1312 0
-1241 -1313 0
-1241 -1314 0
-1242 -1243 0
-1242 -1244 0
-1242 -1245 0
-1242 -1246 0
-1242 -1247 0
-1242 -1248 0
-1242 -1249 0
-1242 -1250 0
-1242 -1251 0
-1242 -1252 0
-1242 -1253 0
-1242 -1254 0
-1242 -1255 0
-1242 -1256 0
-1242 -1257 0
-1242 -1258 0
-1242 -1259 0
-1242 -1260 0
-1242 -1261 0
-1242 -1262 0
-1242 -1263 0
-1242 -1264 0
-1242 -1265 0
-1242 -1266 0
-1242 -1267 0
-1242 -1268 0
-1242 -1269 0
-1242 -1270 0
-1242 -1271 0
-1242 -1272 0
-1242 -1273 0
-1242 -1274 0
-1242 -1275 0
-1242 -1276 0
-1242 -1277 0
-1242 -1278 0
-1242 -1279 0
-1242 -1280 0
-1242 -1281 0
-1242 -1282 0
-1242 -1283 0
-1242 -1284 0
-1242 -1285 0
-1242 -1286 0
-1242 -1287 0
-1242 -1288 0
-1242 -1289 0
-1242 -1290 0
-1242 -1291 0
-1242 -1292 0
-1242 -1293 0
-1242 -1294 0
-1242 -1295 0
-1242 -1296 0
-1242 -1297 0
-1242 -1298 0
-1242 -1299 0
-1242 -1300 0
-1242 -1301 0
-1242 -1302 0
-1242 -1303 0
-1242 -1304 0
-1242 -1305 0
-1242 -1306 0
-1242 -1307 0
-1242 -1308 0
-1242 -1309 0
-1242 -1310 0
-1242 -1311 0
-1242 -1312 0
-1242 -1313 0
-1242 -1314 0
-1243 -1244 0
-1243 -1245 0
-1243 -1246 0
-1243 -1247 0
-1243 -1248 0
-1243 -1249 0
-1243 -1250 0
-1243 -1251 0
-1243 -1252 0
-1243 -1253 0
-1243 -1254 0
-1243 -1255 0
-1243 -1256 0
-1243 -1257 0
-1243 -1258 0
-1243 -1259 0
-1243 -1260 0
-1243 -1261 0
-1243 -1262 0
-1243 -1263 0
-1243 -1264 0
-1243 -1265 0
-1243 -1266 0
-1243 -1267 0
-1243 -1268 0
-1243 -1269 0
-1243 -1270 0
-1243 -1271 0
-1243 -1272 0
-1243 -1273 0
-1243 -1274 0
-1243 -1275 0
-1243 -1276 0
-1243 -1277 0
-1243 -1278 0
-1243 -1279 0
-1243 -1280 0
-1243 -1281 0
-1243 -1282 0
-1243 -1283 0
-1243 -1284 0
-1243 -1285 0
-1243 -1286 0
-1243 -1287 0
-1243 -1288 0
-1243 -1289 0
-1243 -1290 0
-1243 -1291 0
-1243 -1292 0
-1243 -1293 0
-1243 -1294 0
-1243 -1295 0
-1243 -1296 0
-1243 -1297 0
-1243 -1298 0
-1243 -1299 0
-1243 -1300 0
-1243 -1301 0
-1243 -1302 0
-1243 -1303 0
-1243 -1304 0
-1243 -1305 0
-1243 -1306 0
-1243 -1307 0
-1243 -1308 0
-1243 -1309 0
-1243 -1310 0
-1243 -1311 0
-1243 -1312 0
-1243 -1313 0
-1243 -1314 0
-1244 -1245 0
-1244 -1246 0
-1244 -1247 0
-1244 -1248 0
-1244 -1249 0
-1244 -1250 0
-1244 -1251 0
-1244 -1252 0
-1244 -1253 0
-1244 -1254 0
-1244 -1255 0
-1244 -1256 0
-1244 -1257 0
-1244 -1258 0
-1244 -1259 0
-1244 -1260 0
-1244 -1261 0
-1244 -1262 0
-1244 -1263 0
-1244 -1264 0
-1244 -1265 0
-1244 -1266 0
-1244 -1267 0
-1244 -1268 0
-1244 -1269 0
-1244 -1270 0
-1244 -1271 0
-1244 -1272 0
-1244 -1273 0
-1244 -1274 0
-1244 -1275 0
-1244 -1276 0
-1244 -1277 0
-1244 -1278 0
-1244 -1279 0
-1244 -1280 0
-1244 -1281 0
-1244 -1282 0
-1244 -1283 0
-1244 -1284 0
-1244 -1285 0
-1244 -1286 0
-1244 -1287 0
-1244 -1288 0
-1244 -1289 0
-1244 -1290 0
-1244 -1291 0
-1244 -1292 0
-1244 -1293 0
-1244 -1294 0
-1244 -1295 0
-1244 -1296 0
-1244 -1297 0
-1244 -1298 0
-1244 -1299 0
-1244 -1300 0
-1244 -1301 0
-1244 -1302 0
-1244 -1303 0
-1244 -1304 0
-1244 -1305 0
-1244 -1306 0
-1244 -1307 0
-1244 -1308 0
-1244 -1309 0
-1244 -1310 0
-1244 -1311 0
-1244 -1312 0
-1244 -1313 0
-1244 -1314 0
-1245 -1246 0
-1245 -1247 0
-1245 -1248 0
-1245 -1249 0
-1245 -1250 0
-1245 -1251 0
-1245 -1252 0
-1245 -1253 0
-1245 -1254 0
-1245 -1255 0
-1245 -1256 0
-1245 -1257 0
-1245 -1258 0
-1245 -1259 0
-1245 -1260 0
-1245 -1261 0
-1245 -1262 0
-1245 -1263 0
-1245 -1264 0
-1245 -1265 0
-1245 -1266 0
-1245 -1267 0
-1245 -1268 0
-1245 -1269 0
-1245 -1270 0
-1245 -1271 0
-1245 -1272 0
-1245 -1273 0
-1245 -1274 0
-1245 -1275 0
-1245 -1276 0
-1245 -1277 0
-1245 -1278 0
-1245 -1279 0
-1245 -1280 0
-1245 -1281 0
-1245 -1282 0
-1245 -1283 0
-1245 -1284 0
-1245 -1285 0
-1245 -1286 0
-1245 -1287 0
-1245 -1288 0
-1245 -1289 0
-1245 -1290 0
-1245 -1291 0
-1245 -1292 0
-1245 -1293 0
-1245 -1294 0
-1245 -1295 0
-1245 -1296 0
-1245 -1297 0
-1245 -1298 0
-1245 -1299 0
-1245 -1300 0
-1245 -1301 0
-1245 -1302 0
-1245 -1303 0
-1245 -1304 0
-1245 -1305 0
-1245 -1306 0
-1245 -1307 0
-1245 -1308 0
-1245 -1309 0
-1245 -1310 0
-1245 -1311 0
-1245 -1312 0
-1245 -1313 0
-1245 -1314 0
-1246 -1247 0
-1246 -1248 0
-1246 -1249 0
-1246 -1250 0
-1246 -1251 0
-1246 -1252 0
-1246 -1253 0
-1246 -1254 0
-1246 -1255 0
-1246 -1256 0
-1246 -1257 0
-1246 -1258 0
-1246 -1259 0
-1246 -1260 0
-1246 -1261 0
-1246 -1262 0
-1246 -1263 0
-1246 -1264 0
-1246 -1265 0
-1246 -1266 0
-1246 -1267 0
-1246 -1268 0
-1246 -1269 0
-1246 -1270 0
-1246 -1271 0
-1246 -1272 0
-1246 -1273 0
-1246 -1274 0
-1246 -1275 0
-1246 -1276 0
-1246 -1277 0
-1246 -1278 0
-1246 -1279 0
-1246 -1280 0
-1246 -1281 0
-1246 -1282 0
-1246 -1283 0
-1246 -1284 0
-1246 -1285 0
-1246 -1286 0
-1246 -1287 0
-1246 -1288 0
-1246 -1289 0
-1246 -1290 0
-1246 -1291 0
-1246 -1292 0
-1246 -1293 0
-1246 -1294 0
-1246 -1295 0
-1246 -1296 0
-1246 -1297 0
-1246 -1298 0
-1246 -1299 0
-1246 -1300 0
-1246 -1301 0
-1246 -1302 0
-1246 -1303 0
-1246 -1304 0
-1246 -1305 0
-1246 -1306 0
-1246 -1307 0
-1246 -1308 0
-1246 -1309 0
-1246 -1310 0
-1246 -1311 0
-1246 -1312 0
-1246 -1313 0
-1246 -1314 0
-1247 -1248 0
-1247 -1249 0
-1247 -1250 0
-1247 -1251 0
-1247 -1252 0
-1247 -1253 0
-1247 -1254 0
-1247 -1255 0
-1247 -1256 0
-1247 -1257 0
-1247 -1258 0
-1247 -1259 0
-1247 -1260 0
-1247 -1261 0
-1247 -1262 0
-1247 -1263 0
-1247 -1264 0
-1247 -1265 0
-1247 -1266 0
-1247 -1267 0
-1247 -1268 0
-1247 -1269 0
-1247 -1270 0
-1247 -1271 0
-1247 -1272 0
-1247 -1273 0
-1247 -1274 0
-1247 -1275 0
-1247 -1276 0
-1247 -1277 0
-1247 -1278 0
-1247 -1279 0
-1247 -1280 0
-1247 -1281 0
-1247 -1282 0
-1247 -1283 0
-1247 -1284 0
-1247 -1285 0
-1247 -1286 0
-1247 -1287 0
-1247 -1288 0
-1247 -1289 0
-1247 -1290 0
-1247 -1291 0
-1247 -1292 0
-1247 -1293 0
-1247 -1294 0
-1247 -1295 0
-1247 -1296 0
-1247 -1297 0
-1247 -1298 0
-1247 -1299 0
-1247 -1300 0
-1247 -1301 0
-1247 -1302 0
-1247 -1303 0
-1247 -1304 0
-1247 -1305 0
-1247 -1306 0
-1247 -1307 0
-1247 -1308 0
-1247 -1309 0
-1247 -1310 0
-1247 -1311 0
-1247 -1312 0
-1247 -1313 0
-1247 -1314 0
-1248 -1249 0
-1248 -1250 0
-1248 -1251 0
-1248 -1252 0
-1248 -1253 0
-1248 -1254 0
-1248 -1255 0
-1248 -1256 0
-1248 -1257 0
-1248 -1258 0
-1248 -1259 0
-1248 -1260 0
-1248 -1261 0
-1248 -1262 0
-1248 -1263 0
-1248 -1264 0
-1248 -1265 0
-1248 -1266 0
-1248 -1267 0
-1248 -1268 0
-1248 -1269 0
-1248 -1270 0
-1248 -1271 0
-1248 -1272 0
-1248 -1273 0
-1248 -1274 0
-1248 -1275 0
-1248 -1276 0
-1248 -1277 0
-1248 -1278 0
-1248 -1279 0
-1248 -1280 0
-1248 -1281 0
-1248 -1282 0
-1248 -1283 0
-1248 -1284 0
-1248 -1285 0
-1248 -1286 0
-1248 -1287 0
-1248 -1288 0
-1248 -1289 0
-1248 -1290 0
-1248 -1291 0
-1248 -1292 0
-1248 -1293 0
-1248 -1294 0
-1248 -1295 0
-1248 -1296 0
-1248 -1297 0
-1248 -1298 0
-1248 -1299 0
-1248 -1300 0
-1248 -1301 0
-1248 -1302 0
-1248 -1303 0
-1248 -1304 0
-1248 -1305 0
-1248 -1306 0
-1248 -1307 0
-1248 -1308 0
-1248 -1309 0
-1248 -1310 0
-1248 -1311 0
-1248 -1312 0
-1248 -1313 0
-1248 -1314 0
-1249 -1250 0
-1249 -1251 0
-1249 -1252 0
-1249 -1253 0
-1249 -1254 0
-1249 -1255 0
-1249 -1256 0
-1249 -1257 0
-1249 -1258 0
-1249 -1259 0
-1249 -1260 0
-1249 -1261 0
-1249 -1262 0
-1249 -1263 0
-1249 -1264 0
-1249 -1265 0
-1249 -1266 0
-1249 -1267 0
-1249 -1268 0
-1249 -1269 0
-1249 -1270 0
-1249 -1271 0
-1249 -1272 0
-1249 -1273 0
-1249 -1274 0
-1249 -1275 0
-1249 -1276 0
-1249 -1277 0
-1249 -1278 0
-1249 -1279 0
-1249 -1280 0
-1249 -1281 0
-1249 -1282 0
-1249 -1283 0
-1249 -1284 0
-1249 -1285 0
-1249 -1286 0
-1249 -1287 0
-1249 -1288 0
-1249 -1289 0
-1249 -1290 0
-1249 -1291 0
-1249 -1292 0
-1249 -1293 0
-1249 -1294 0
-1249 -1295 0
-1249 -1296 0
-1249 -1297 0
-1249 -1298 0
-1249 -1299 0
-1249 -1300 0
-1249 -1301 0
-1249 -1302 0
-1249 -1303 0
-1249 -1304 0
-1249 -1305 0
-1249 -1306 0
-1249 -1307 0
-1249 -1308 0
-1249 -1309 0
-1249 -1310 0
-1249 -1311 0
-1249 -1312 0
-1249 -1313 0
-1249 -1314 0
-1250 -1251 0
-1250 -1252 0
-1250 -1253 0
-1250 -1254 0
-1250 -1255 0
-1250 -1256 0
-1250 -1257 0
-1250 -1258 0
-1250 -1259 0
-1250 -1260 0
-1250 -1261 0
-1250 -1262 0
-1250 -1263 0
-1250 -1264 0
-1250 -1265 0
-1250 -1266 0
-1250 -1267 0
-1250 -1268 0
-1250 -1269 0
-1250 -1270 0
-1250 -1271 0
-1250 -1272 0
-1250 -1273 0
-1250 -1274 0
-1250 -1275 0
-1250 -1276 0
-1250 -1277 0
-1250 -1278 0
-1250 -1279 0
-1250 -1280 0
-1250 -1281 0
-1250 -1282 0
-1250 -1283 0
-1250 -1284 0
-1250 -1285 0
-1250 -1286 0
-1250 -1287 0
-1250 -1288 0
-1250 -1289 0
-1250 -1290 0
-1250 -1291 0
-1250 -1292 0
-1250 -1293 0
-1250 -1294 0
-1250 -1295 0
-1250 -1296 0
-1250 -1297 0
-1250 -1298 0
-1250 -1299 0
-1250 -1300 0
-1250 -1301 0
-1250 -1302 0
-1250 -1303 0
-1250 -1304 0
-1250 -1305 0
-1250 -1306 0
-1250 -1307 0
-1250 -1308 0
-1250 -1309 0
-1250 -1310 0
-1250 -1311 0
-1250 -1312 0
-1250 -1313 0
-1250 -1314 0
-1251 -1252 0
-1251 -1253 0
-1251 -1254 0
-1251 -1255 0
-1251 -1256 0
-1251 -1257 0
-1251 -1258 0
-1251 -1259 0
-1251 -1260 0
-1251 -1261 0
-1251 -1262 0
-1251 -1263 0
-1251 -1264 0
-1251 -1265 0
-1251 -1266 0
-1251 -1267 0
-1251 -1268 0
-1251 -1269 0
-1251 -1270 0
-1251 -1271 0
-1251 -1272 0
-1251 -1273 0
-1251 -1274 0
-1251 -1275 0
-1251 -1276 0
-1251 -1277 0
-1251 -1278 0
-1251 -1279 0
-1251 -1280 0
-1251 -1281 0
-1251 -1282 0
-1251 -1283 0
-1251 -1284 0
-1251 -1285 0
-1251 -1286 0
-1251 -1287 0
-1251 -1288 0
-1251 -1289 0
-1251 -1290 0
-1251 -1291 0
-1251 -1292 0
-1251 -1293 0
-1251 -1294 0
-1251 -1295 0
-1251 -1296 0
-1251 -1297 0
-1251 -1298 0
-1251 -1299 0
-1251 -1300 0
-1251 -1301 0
-1251 -1302 0
-1251 -1303 0
-1251 -1304 0
-1251 -1305 0
-1251 -1306 0
-1251 -1307 0
-1251 -1308 0
-1251 -1309 0
-1251 -1310 0
-1251 -1311 0
-1251 -1312 0
-1251 -1313 0
-1251 -1314 0
-1252 -1253 0
-1252 -1254 0
-1252 -1255 0
-1252 -1256 0
-1252 -1257 0
-1252 -1258 0
-1252 -1259 0
-1252 -1260 0
-1252 -1261 0
-1252 -1262 0
-1252 -1263 0
-1252 -1264 0
-1252 -1265 0
-1252 -1266 0
-1252 -1267 0
-1252 -1268 0
-1252 -1269 0
-1252 -1270 0
-1252 -1271 0
-1252 -1272 0
-1252 -1273 0
-1252 -1274 0
-1252 -1275 0
-1252 -1276 0
-1252 -1277 0
-1252 -1278 0
-1252 -1279 0
-1252 -1280 0
-1252 -1281 0
-1252 -1282 0
-1252 -1283 0
-1252 -1284 0
-1252 -1285 0
-1252 -1286 0
-1252 -1287 0
-1252 -1288 0
-1252 -1289 0
-1252 -1290 0
-1252 -1291 0
-1252 -1292 0
-1252 -1293 0
-1252 -1294 0
-1252 -1295 0
-1252 -1296 0
-1252 -1297 0
-1252 -1298 0
-1252 -1299 0
-1252 -1300 0
-1252 -1301 0
-1252 -1302 0
-1252 -1303 0
-1252 -1304 0
-1252 -1305 0
-1252 -1306 0
-1252 -1307 0
-1252 -1308 0
-1252 -1309 0
-1252 -1310 0
-1252 -1311 0
-1252 -1312 0
-1252 -1313 0
-1252 -1314 0
-1253 -1254 0
-1253 -1255 0
-1253 -1256 0
-1253 -1257 0
-1253 -1258 0
-1253 -1259 0
-1253 -1260 0
-1253 -1261 0
-1253 -1262 0
-1253 -1263 0
-1253 -1264 0
-1253 -1265 0
-1253 -1266 0
-1253 -1267 0
-1253 -1268 0
-1253 -1269 0
-1253 -1270 0
-1253 -1271 0
-1253 -1272 0
-1253 -1273 0
-1253 -1274 0
-1253 -1275 0
-1253 -1276 0
-1253 -1277 0
-1253 -1278 0
-1253 -1279 0
-1253 -1280 0
-1253 -1281 0
-1253 -1282 0
-1253 -1283 0
-1253 -1284 0
-1253 -1285 0
-1253 -1286 0
-1253 -1287 0
-1253 -1288 0
-1253 -1289 0
-1253 -1290 0
-1253 -1291 0
-1253 -1292 0
-1253 -1293 0
-1253 -1294 0
-1253 -1295 0
-1253 -1296 0
-1253 -1297 0
-1253 -1298 0
-1253 -1299 0
-1253 -1300 0
-1253 -1301 0
-1253 -1302 0
-1253 -1303 0
-1253 -1304 0
-1253 -1305 0
-1253 -1306 0
-1253 -1307 0
-1253 -1308 0
-1253 -1309 0
-1253 -1310 0
-1253 -1311 0
-1253 -1312 0
-1253 -1313 0
-1253 -1314 0
-1254 -1255 0
-1254 -1256 0
-1254 -1257 0
-1254 -1258 0
-1254 -1259 0
-1254 -1260 0
-1254 -1261 0
-1254 -1262 0
-1254 -1263 0
-1254 -1264 0
-1254 -1265 0
-1254 -1266 0
-1254 -1267 0
-1254 -1268 0
-1254 -1269 0
-1254 -1270 0
-1254 -1271 0
-1254 -1272 0
-1254 -1273 0
-1254 -1274 0
-1254 -1275 0
-1254 -1276 0
-1254 -1277 0
-1254 -1278 0
-1254 -1279 0
-1254 -1280 0
-1254 -1281 0
-1254 -1282 0
-1254 -1283 0
-1254 -1284 0
-1254 -1285 0
-1254 -1286 0
-1254 -1287 0
-1254 -1288 0
-1254 -1289 0
-1254 -1290 0
-1254 -1291 0
-1254 -1292 0
-1254 -1293 0
-1254 -1294 0
-1254 -1295 0
-1254 -1296 0
-1254 -1297 0
-1254 -1298 0
-1254 -1299 0
-1254 -1300 0
-1254 -1301 0
-1254 -1302 0
-1254 -1303 0
-1254 -1304 0
-1254 -1305 0
-1254 -1306 0
-1254 -1307 0
-1254 -1308 0
-1254 -1309 0
-1254 -1310 0
-1254 -1311 0
-1254 -1312 0
-1254 -1313 0
-1254 -1314 0
-1255 -1256 0
-1255 -1257 0
-1255 -1258 0
-1255 -1259 0
-1255 -1260 0
-1255 -1261 0
-1255 -1262 0
-1255 -1263 0
-1255 -1264 0
-1255 -1265 0
-1255 -1266 0
-1255 -1267 0
-1255 -1268 0
-1255 -1269 0
-1255 -1270 0
-1255 -1271 0
-1255 -1272 0
-1255 -1273 0
-1255 -1274 0
-1255 -1275 0
-1255 -1276 0
-1255 -1277 0
-1255 -1278 0
-1255 -1279 0
-1255 -1280 0
-1255 -1281 0
-1255 -1282 0
-1255 -1283 0
-1255 -1284 0
-1255 -1285 0
-1255 -1286 0
-1255 -1287 0
-1255 -1288 0
-1255 -1289 0
-1255 -1290 0
-1255 -1291 0
-1255 -1292 0
-1255 -1293 0
-1255 -1294 0
-1255 -1295 0
-1255 -1296 0
-1255 -1297 0
-1255 -1298 0
-1255 -1299 0
-1255 -1300 0
-1255 -1301 0
-1255 -1302 0
-1255 -1303 0
-1255 -1304 0
-1255 -1305 0
-1255 -1306 0
-1255 -1307 0
-1255 -1308 0
-1255 -1309 0
-1255 -1310 0
-1255 -1311 0
-1255 -1312 0
-1255 -1313 0
-1255 -1314 0
-1256 -1257 0
-1256 -1258 0
-1256 -1259 0
-1256 -1260 0
-1256 -1261 0
-1256 -1262 0
-1256 -1263 0
-1256 -1264 0
-1256 -1265 0
-1256 -1266 0
-1256 -1267 0
-1256 -1268 0
-1256 -1269 0
-1256 -1270 0
-1256 -1271 0
-1256 -1272 0
-1256 -1273 0
-1256 -1274 0
-1256 -1275 0
-1256 -1276 0
-1256 -1277 0
-1256 -1278 0
-1256 -1279 0
-1256 -1280 0
-1256 -1281 0
-1256 -1282 0
-1256 -1283 0
-1256 -1284 0
-1256 -1285 0
-1256 -1286 0
-1256 -1287 0
-1256 -1288 0
-1256 -1289 0
-1256 -1290 0
-1256 -1291 0
-1256 -1292 0
-1256 -1293 0
-1256 -1294 0
-1256 -1295 0
-1256 -1296 0
-1256 -1297 0
-1256 -1298 0
-1256 -1299 0
-1256 -1300 0
-1256 -1301 0
-1256 -1302 0
-1256 -1303 0
-1256 -1304 0
-1256 -1305 0
-1256 -1306 0
-1256 -1307 0
-1256 -1308 0
-1256 -1309 0
-1256 -1310 0
-1256 -1311 0
-1256 -1312 0
-1256 -1313 0
-1256 -1314 0
-1257 -1258 0
-1257 -1259 0
-1257 -1260 0
-1257 -1261 0
-1257 -1262 0
-1257 -1263 0
-1257 -1264 0
-1257 -1265 0
-1257 -1266 0
-1257 -1267 0
-1257 -1268 0
-1257 -1269 0
-1257 -1270 0
-1257 -1271 0
-1257 -1272 0
-1257 -1273 0
-1257 -1274 0
-1257 -1275 0
-1257 -1276 0
-1257 -1277 0
-1257 -1278 0
-1257 -1279 0
-1257 -1280 0
-1257 -1281 0
-1257 -1282 0
-1257 -1283 0
-1257 -1284 0
-1257 -1285 0
-1257 -1286 0
-1257 -1287 0
-1257 -1288 0
-1257 -1289 0
-1257 -1290 0
-1257 -1291 0
-1257 -1292 0
-1257 -1293 0
-1257 -1294 0
-1257 -1295 0
-1257 -1296 0
-1257 -1297 0
-1257 -1298 0
-1257 -1299 0
-1257 -1300 0
-1257 -1301 0
-1257 -1302 0
-1257 -1303 0
-1257 -1304 0
-1257 -1305 0
-1257 -1306 0
-1257 -1307 0
-1257 -1308 0
-1257 -1309 0
-1257 -1310 0
-1257 -1311 0
-1257 -1312 0
-1257 -1313 0
-1257 -1314 0
-1258 -1259 0
-1258 -1260 0
-1258 -1261 0
-1258 -1262 0
-1258 -1263 0
-1258 -1264 0
-1258 -1265 0
-1258 -1266 0
-1258 -1267 0
-1258 -1268 0
-1258 -1269 0
-1258 -1270 0
-1258 -1271 0
-1258 -1272 0
-1258 -1273 0
-1258 -1274 0
-1258 -1275 0
-1258 -1276 0
-1258 -1277 0
-1258 -1278 0
-1258 -1279 0
-1258 -1280 0
-1258 -1281 0
-1258 -1282 0
-1258 -1283 0
-1258 -1284 0
-1258 -1285 0
-1258 -1286 0
-1258 -1287 0
-1258 -1288 0
-1258 -1289 0
-1258 -1290 0
-1258 -1291 0
-1258 -1292 0
-1258 -1293 0
-1258 -1294 0
-1258 -1295 0
-1258 -1296 0
-1258 -1297 0
-1258 -1298 0
-1258 -1299 0
-1258 -1300 0
-1258 -1301 0
-1258 -1302 0
-1258 -1303 0
-1258 -1304 0
-1258 -1305 0
-1258 -1306 0
-1258 -1307 0
-1258 -1308 0
-1258 -1309 0
-1258 -1310 0
-1258 -1311 0
-1258 -1312 0
-1258 -1313 0
-1258 -1314 0
-1259 -1260 0
-1259 -1261 0
-1259 -1262 0
-1259 -1263 0
-1259 -1264 0
-1259 -1265 0
-1259 -1266 0
-1259 -1267 0
-1259 -1268 0
-1259 -1269 0
-1259 -1270 0
-1259 -1271 0
-1259 -1272 0
-1259 -1273 0
-1259 -1274 0
-1259 -1275 0
-1259 -1276 0
-1259 -1277 0
-1259 -1278 0
-1259 -1279 0
-1259 -1280 0
-1259 -1281 0
-1259 -1282 0
-1259 -1283 0
-1259 -1284 0
-1259 -1285 0
-1259 -1286 0
-1259 -1287 0
-1259 -1288 0
-1259 -1289 0
-1259 -1290 0
-1259 -1291 0
-1259 -1292 0
-1259 -1293 0
-1259 -1294 0
-1259 -1295 0
-1259 -1296 0
-1259 -1297 0
-1259 -1298 0
-1259 -1299 0
-1259 -1300 0
-1259 -1301 0
-1259 -1302 0
-1259 -1303 0
-1259 -1304 0
-1259 -1305 0
-1259 -1306 0
-1259 -1307 0
-1259 -1308 0
-1259 -1309 0
-1259 -1310 0
-1259 -1311 0
-1259 -1312 0
-1259 -1313 0
-1259 -1314 0
-1260 -1261 0
-1260 -1262 0
-1260 -1263 0
-1260 -1264 0
-1260 -1265 0
-1260 -1266 0
-1260 -1267 0
-1260 -1268 0
-1260 -1269 0
-1260 -1270 0
-1260 -1271 0
-1260 -1272 0
-1260 -1273 0
-1260 -1274 0
-1260 -1275 0
-1260 -1276 0
-1260 -1277 0
-1260 -1278 0
-1260 -1279 0
-1260 -1280 0
-1260 -1281 0
-1260 -1282 0
-1260 -1283 0
-1260 -1284 0
-1260 -1285 0
-1260 -1286 0
-1260 -1287 0
-1260 -1288 0
-1260 -1289 0
-1260 -1290 0
-1260 -1291 0
-1260 -1292 0
-1260 -1293 0
-1260 -1294 0
-1260 -1295 0
-1260 -1296 0
-1260 -1297 0
-1260 -1298 0
-1260 -1299 0
-1260 -1300 0
-1260 -1301 0
-1260 -1302 0
-1260 -1303 0
-1260 -1304 0
-1260 -1305 0
-1260 -1306 0
-1260 -1307 0
-1260 -1308 0
-1260 -1309 0
-1260 -1310 0
-1260 -1311 0
-1260 -1312 0
-1260 -1313 0
-1260 -1314 0
-1261 -1262 0
-1261 -1263 0
-1261 -1264 0
-1261 -1265 0
-1261 -1266 0
-1261 -1267 0
-1261 -1268 0
-1261 -1269 0
-1261 -1270 0
-1261 -1271 0
-1261 -1272 0
-1261 -1273 0
-1261 -1274 0
-1261 -1275 0
-1261 -1276 0
-1261 -1277 0
-1261 -1278 0
-1261 -1279 0
-1261 -1280 0
-1261 -1281 0
-1261 -1282 0
-1261 -1283 0
-1261 -1284 0
-1261 -1285 0
-1261 -1286 0
-1261 -1287 0
-1261 -1288 0
-1261 -1289 0
-1261 -1290 0
-1261 -1291 0
-1261 -1292 0
-1261 -1293 0
-1261 -1294 0
-1261 -1295 0
-1261 -1296 0
-1261 -1297 0
-1261 -1298 0
-1261 -1299 0
-1261 -1300 0
-1261 -1301 0
-1261 -1302 0
-1261 -1303 0
-1261 -1304 0
-1261 -1305 0
-1261 -1306 0
-1261 -1307 0
-1261 -1308 0
-1261 -1309 0
-1261 -1310 0
-1261 -1311 0
-1261 -1312 0
-1261 -1313 0
-1261 -1314 0
-1262 -1263 0
-1262 -1264 0
-1262 -1265 0
-1262 -1266 0
-1262 -1267 0
-1262 -1268 0
-1262 -1269 0
-1262 -1270 0
-1262 -1271 0
-1262 -1272 0
-1262 -1273 0
-1262 -1274 0
-1262 -1275 0
-1262 -1276 0
-1262 -1277 0
-1262 -1278 0
-1262 -1279 0
-1262 -1280 0
-1262 -1281 0
-1262 -1282 0
-1262 -1283 0
-1262 -1284 0
-1262 -1285 0
-1262 -1286 0
-1262 -1287 0
-1262 -1288 0
-1262 -1289 0
-1262 -1290 0
-1262 -1291 0
-1262 -1292 0
-1262 -1293 0
-1262 -1294 0
-1262 -1295 0
-1262 -1296 0
-1262 -1297 0
-1262 -1298 0
-1262 -1299 0
-1262 -1300 0
-1262 -1301 0
-1262 -1302 0
-1262 -1303 0
-1262 -1304 0
-1262 -1305 0
-1262 -1306 0
-1262 -1307 0
-1262 -1308 0
-1262 -1309 0
-1262 -1310 0
-1262 -1311 0
-1262 -1312 0
-1262 -1313 0
-1262 -1314 0
-1263 -1264 0
-1263 -1265 0
-1263 -1266 0
-1263 -1267 0
-1263 -1268 0
-1263 -1269 0
-1263 -1270 0
-1263 -1271 0
-1263 -1272 0
-1263 -1273 0
-1263 -1274 0
-1263 -1275 0
-1263 -1276 0
-1263 -1277 0
-1263 -1278 0
-1263 -1279 0
-1263 -1280 0
-1263 -1281 0
-1263 -1282 0
-1263 -1283 0
-1263 -1284 0
-1263 -1285 0
-1263 -1286 0
-1263 -1287 0
-1263 -1288 0
-1263 -1289 0
-1263 -1290 0
-1263 -1291 0
-1263 -1292 0
-1263 -1293 0
-1263 -1294 0
-1263 -1295 0
-1263 -1296 0
-1263 -1297 0
-1263 -1298 0
-1263 -1299 0
-1263 -1300 0
-1263 -1301 0
-1263 -1302 0
-1263 -1303 0
-1263 -1304 0
-1263 -1305 0
-1263 -1306 0
-1263 -1307 0
-1263 -1308 0
-1263 -1309 0
-1263 -1310 0
-1263 -1311 0
-1263 -1312 0
-1263 -1313 0
-1263 -1314 0
-1264 -1265 0
-1264 -1266 0
-1264 -1267 0
-1264 -1268 0
-1264 -1269 0
-1264 -1270 0
-1264 -1271 0
-1264 -1272 0
-1264 -1273 0
-1264 -1274 0
-1264 -1275 0
-1264 -1276 0
-1264 -1277 0
-1264 -1278 0
-1264 -1279 0
-1264 -1280 0
-1264 -1281 0
-1264 -1282 0
-1264 -1283 0
-1264 -1284 0
-1264 -1285 0
-1264 -1286 0
-1264 -1287 0
-1264 -1288 0
-1264 -1289 0
-1264 -1290 0
-1264 -1291 0
-1264 -1292 0
-1264 -1293 0
-1264 -1294 0
-1264 -1295 0
-1264 -1296 0
-1264 -1297 0
-1264 -1298 0
-1264 -1299 0
-1264 -1300 0
-1264 -1301 0
-1264 -1302 0
-1264 -1303 0
-1264 -1304 0
-1264 -1305 0
-1264 -1306 0
-1264 -1307 0
-1264 -1308 0
-1264 -1309 0
-1264 -1310 0
-1264 -1311 0
-1264 -1312 0
-1264 -1313 0
-1264 -1314 0
-1265 -1266 0
-1265 -1267 0
-1265 -1268 0
-1265 -1269 0
-1265 -1270 0
-1265 -1271 0
-1265 -1272 0
-1265 -1273 0
-1265 -1274 0
-1265 -1275 0
-1265 -1276 0
-1265 -1277 0
-1265 -1278 0
-1265 -1279 0
-1265 -1280 0
-1265 -1281 0
-1265 -1282 0
-1265 -1283 0
-1265 -1284 0
-1265 -1285 0
-1265 -1286 0
-1265 -1287 0
-1265 -1288 0
-1265 -1289 0
-1265 -1290 0
-1265 -1291 0
-1265 -1292 0
-1265 -1293 0
-1265 -1294 0
-1265 -1295 0
-1265 -1296 0
-1265 -1297 0
-1265 -1298 0
-1265 -1299 0
-1265 -1300 0
-1265 -1301 0
-1265 -1302 0
-1265 -1303 0
-1265 -1304 0
-1265 -1305 0
-1265 -1306 0
-1265 -1307 0
-1265 -1308 0
-1265 -1309 0
-1265 -1310 0
-1265 -1311 0
-1265 -1312 0
-1265 -1313 0
-1265 -1314 0
-1266 -1267 0
-1266 -1268 0
-1266 -1269 0
-1266 -1270 0
-1266 -1271 0
-1266 -1272 0
-1266 -1273 0
-1266 -1274 0
-1266 -1275 0
-1266 -1276 0
-1266 -1277 0
-1266 -1278 0
-1266 -1279 0
-1266 -1280 0
-1266 -1281 0
-1266 -1282 0
-1266 -1283 0
-1266 -1284 0
-1266 -1285 0
-1266 -1286 0
-1266 -1287 0
-1266 -1288 0
-1266 -1289 0
-1266 -1290 0
-1266 -1291 0
-1266 -1292 0
-1266 -1293 0
-1266 -1294 0
-1266 -1295 0
-1266 -1296 0
-1266 -1297 0
-1266 -1298 0
-1266 -1299 0
-1266 -1300 0
-1266 -1301 0
-1266 -1302 0
-1266 -1303 0
-1266 -1304 0
-1266 -1305 0
-1266 -1306 0
-1266 -1307 0
-1266 -1308 0
-1266 -1309 0
-1266 -1310 0
-1266 -1311 0
-1266 -1312 0
-1266 -1313 0
-1266 -1314 0
-1267 -1268 0
-1267 -1269 0
-1267 -1270 0
-1267 -1271 0
-1267 -1272 0
-1267 -1273 0
-1267 -1274 0
-1267 -1275 0
-1267 -1276 0
-1267 -1277 0
-1267 -1278 0
-1267 -1279 0
-1267 -1280 0
-1267 -1281 0
-1267 -1282 0
-1267 -1283 0
-1267 -1284 0
-1267 -1285 0
-1267 -1286 0
-1267 -1287 0
-1267 -1288 0
-1267 -1289 0
-1267 -1290 0
-1267 -1291 0
-1267 -1292 0
-1267 -1293 0
-1267 -1294 0
-1267 -1295 0
-1267 -1296 0
-1267 -1297 0
-1267 -1298 0
-1267 -1299 0
-1267 -1300 0
-1267 -1301 0
-1267 -1302 0
-1267 -1303 0
-1267 -1304 0
-1267 -1305 0
-1267 -1306 0
-1267 -1307 0
-1267 -1308 0
-1267 -1309 0
-1267 -1310 0
-1267 -1311 0
-1267 -1312 0
-1267 -1313 0
-1267 -1314 0
-1268 -1269 0
-1268 -1270 0
-1268 -1271 0
-1268 -1272 0
-1268 -1273 0
-1268 -1274 0
-1268 -1275 0
-1268 -1276 0
-1268 -1277 0
-1268 -1278 0
-1268 -1279 0
-1268 -1280 0
-1268 -1281 0
-1268 -1282 0
-1268 -1283 0
-1268 -1284 0
-1268 -1285 0
-1268 -1286 0
-1268 -1287 0
-1268 -1288 0
-1268 -1289 0
-1268 -1290 0
-1268 -1291 0
-1268 -1292 0
-1268 -1293 0
-1268 -1294 0
-1268 -1295 0
-1268 -1296 0
-1268 -1297 0
-1268 -1298 0
-1268 -1299 0
-1268 -1300 0
-1268 -1301 0
-1268 -1302 0
-1268 -1303 0
-1268 -1304 0
-1268 -1305 0
-1268 -1306 0
-1268 -1307 0
-1268 -1308 0
-1268 -1309 0
-1268 -1310 0
-1268 -1311 0
-1268 -1312 0
-1268 -1313 0
-1268 -1314 0
-1269 -1270 0
-1269 -1271 0
-1269 -1272 0
-1269 -1273 0
-1269 -1274 0
-1269 -1275 0
-1269 -1276 0
-1269 -1277 0
-1269 -1278 0
-1269 -1279 0
-1269 -1280 0
-1269 -1281 0
-1269 -1282 0
-1269 -1283 0
-1269 -1284 0
-1269 -1285 0
-1269 -1286 0
-1269 -1287 0
-1269 -1288 0
-1269 -1289 0
-1269 -1290 0
-1269 -1291 0
-1269 -1292 0
-1269 -1293 0
-1269 -1294 0
-1269 -1295 0
-1269 -1296 0
-1269 -1297 0
-1269 -1298 0
-1269 -1299 0
-1269 -1300 0
-1269 -1301 0
-1269 -1302 0
-1269 -1303 0
-1269 -1304 0
-1269 -1305 0
-1269 -1306 0
-1269 -1307 0
-1269 -1308 0
-1269 -1309 0
-1269 -1310 0
-1269 -1311 0
-1269 -1312 0
-1269 -1313 0
-1269 -1314 0
-1270 -1271 0
-1270 -1272 0
-1270 -1273 0
-1270 -1274 0
-1270 -1275 0
-1270 -1276 0
-1270 -1277 0
-1270 -1278 0
-1270 -1279 0
-1270 -1280 0
-1270 -1281 0
-1270 -1282 0
-1270 -1283 0
-1270 -1284 0
-1270 -1285 0
-1270 -1286 0
-1270 -1287 0
-1270 -1288 0
-1270 -1289 0
-1270 -1290 0
-1270 -1291 0
-1270 -1292 0
-1270 -1293 0
-1270 -1294 0
-1270 -1295 0
-1270 -1296 0
-1270 -1297 0
-1270 -1298 0
-1270 -1299 0
-1270 -1300 0
-1270 -1301 0
-1270 -1302 0
-1270 -1303 0
-1270 -1304 0
-1270 -1305 0
-1270 -1306 0
-1270 -1307 0
-1270 -1308 0
-1270 -1309 0
-1270 -1310 0
-1270 -1311 0
-1270 -1312 0
-1270 -1313 0
-1270 -1314 0
-1271 -1272 0
-1271 -1273 0
-1271 -1274 0
-1271 -1275 0
-1271 -1276 0
-1271 -1277 0
-1271 -1278 0
-1271 -1279 0
-1271 -1280 0
-1271 -1281 0
-1271 -1282 0
-1271 -1283 0
-1271 -1284 0
-1271 -1285 0
-1271 -1286 0
-1271 -1287 0
-1271 -1288 0
-1271 -1289 0
-1271 -1290 0
-1271 -1291 0
-1271 -1292 0
-1271 -1293 0
-1271 -1294 0
-1271 -1295 0
-1271 -1296 0
-1271 -1297 0
-1271 -1298 0
-1271 -1299 0
-1271 -1300 0
-1271 -1301 0
-1271 -1302 0
-1271 -1303 0
-1271 -1304 0
-1271 -1305 0
-1271 -1306 0
-1271 -1307 0
-1271 -1308 0
-1271 -1309 0
-1271 -1310 0
-1271 -1311 0
-1271 -1312 0
-1271 -1313 0
-1271 -1314 0
-1272 -1273 0
-1272 -1274 0
-1272 -1275 0
-1272 -1276 0
-1272 -1277 0
-1272 -1278 0
-1272 -1279 0
-1272 -1280 0
-1272 -1281 0
-1272 -1282 0
-1272 -1283 0
-1272 -1284 0
-1272 -1285 0
-1272 -1286 0
-1272 -1287 0
-1272 -1288 0
-1272 -1289 0
-1272 -1290 0
-1272 -1291 0
-1272 -1292 0
-1272 -1293 0
-1272 -1294 0
-1272 -1295 0
-1272 -1296 0
-1272 -1297 0
-1272 -1298 0
-1272 -1299 0
-1272 -1300 0
-1272 -1301 0
-1272 -1302 0
-1272 -1303 0
-1272 -1304 0
-1272 -1305 0
-1272 -1306 0
-1272 -1307 0
-1272 -1308 0
-1272 -1309 0
-1272 -1310 0
-1272 -1311 0
-1272 -1312 0
-1272 -1313 0
-1272 -1314 0
-1273 -1274 0
-1273 -1275 0
-1273 -1276 0
-1273 -1277 0
-1273 -1278 0
-1273 -1279 0
-1273 -1280 0
-1273 -1281 0
-1273 -1282 0
-1273 -1283 0
-1273 -1284 0
-1273 -1285 0
-1273 -1286 0
-1273 -1287 0
-1273 -1288 0
-1273 -1289 0
-1273 -1290 0
-1273 -1291 0
-1273 -1292 0
-1273 -1293 0
-1273 -1294 0
-1273 -1295 0
-1273 -1296 0
-1273 -1297 0
-1273 -1298 0
-1273 -1299 0
-1273 -1300 0
-1273 -1301 0
-1273 -1302 0
-1273 -1303 0
-1273 -1304 0
-1273 -1305 0
-1273 -1306 0
-1273 -1307 0
-1273 -1308 0
-1273 -1309 0
-1273 -1310 0
-1273 -1311 0
-1273 -1312 0
-1273 -1313 0
-1273 -1314 0
-1274 -1275 0
-1274 -1276 0
-1274 -1277 0
-1274 -1278 0
-1274 -1279 0
-1274 -1280 0
-1274 -1281 0
-1274 -1282 0
-1274 -1283 0
-1274 -1284 0
-1274 -1285 0
-1274 -1286 0
-1274 -1287 0
-1274 -1288 0
-1274 -1289 0
-1274 -1290 0
-1274 -1291 0
-1274 -1292 0
-1274 -1293 0
-1274 -1294 0
-1274 -1295 0
-1274 -1296 0
-1274 -1297 0
-1274 -1298 0
-1274 -1299 0
-1274 -1300 0
-1274 -1301 0
-1274 -1302 0
-1274 -1303 0
-1274 -1304 0
-1274 -1305 0
-1274 -1306 0
-1274 -1307 0
-1274 -1308 0
-1274 -1309 0
-1274 -1310 0
-1274 -1311 0
-1274 -1312 0
-1274 -1313 0
-1274 -1314 0
-1275 -1276 0
-1275 -1277 0
-1275 -1278 0
-1275 -1279 0
-1275 -1280 0
-1275 -1281 0
-1275 -1282 0
-1275 -1283 0
-1275 -1284 0
-1275 -1285 0
-1275 -1286 0
-1275 -1287 0
-1275 -1288 0
-1275 -1289 0
-1275 -1290 0
-1275 -1291 0
-1275 -1292 0
-1275 -1293 0
-1275 -1294 0
-1275 -1295 0
-1275 -1296 0
-1275 -1297 0
-1275 -1298 0
-1275 -1299 0
-1275 -1300 0
-1275 -1301 0
-1275 -1302 0
-1275 -1303 0
-1275 -1304 0
-1275 -1305 0
-1275 -1306 0
-1275 -1307 0
-1275 -1308 0
-1275 -1309 0
-1275 -1310 0
-1275 -1311 0
-1275 -1312 0
-1275 -1313 0
-1275 -1314 0
-1276 -1277 0
-1276 -1278 0
-1276 -1279 0
-1276 -1280 0
-1276 -1281 0
-1276 -1282 0
-1276 -1283 0
-1276 -1284 0
-1276 -1285 0
-1276 -1286 0
-1276 -1287 0
-1276 -1288 0
-1276 -1289 0
-1276 -1290 0
-1276 -1291 0
-1276 -1292 0
-1276 -1293 0
-1276 -1294 0
-1276 -1295 0
-1276 -1296 0
-1276 -1297 0
-1276 -1298 0
-1276 -1299 0
-1276 -1300 0
-1276 -1301 0
-1276 -1302 0
-1276 -1303 0
-1276 -1304 0
-1276 -1305 0
-1276 -1306 0
-1276 -1307 0
-1276 -1308 0
-1276 -1309 0
-1276 -1310 0
-1276 -1311 0
-1276 -1312 0
-1276 -1313 0
-1276 -1314 0
-1277 -1278 0
-1277 -1279 0
-1277 -1280 0
-1277 -1281 0
-1277 -1282 0
-1277 -1283 0
-1277 -1284 0
-1277 -1285 0
-1277 -1286 0
-1277 -1287 0
-1277 -1288 0
-1277 -1289 0
-1277 -1290 0
-1277 -1291 0
-1277 -1292 0
-1277 -1293 0
-1277 -1294 0
-1277 -1295 0
-1277 -1296 0
-1277 -1297 0
-1277 -1298 0
-1277 -1299 0
-1277 -1300 0
-1277 -1301 0
-1277 -1302 0
-1277 -1303 0
-1277 -1304 0
-1277 -1305 0
-1277 -1306 0
-1277 -1307 0
-1277 -1308 0
-1277 -1309 0
-1277 -1310 0
-1277 -1311 0
-1277 -1312 0
-1277 -1313 0
-1277 -1314 0
-1278 -1279 0
-1278 -1280 0
-1278 -1281 0
-1278 -1282 0
-1278 -1283 0
-1278 -1284 0
-1278 -1285 0
-1278 -1286 0
-1278 -1287 0
-1278 -1288 0
-1278 -1289 0
-1278 -1290 0
-1278 -1291 0
-1278 -1292 0
-1278 -1293 0
-1278 -1294 0
-1278 -1295 0
-1278 -1296 0
-1278 -1297 0
-1278 -1298 0
-1278 -1299 0
-1278 -1300 0
-1278 -1301 0
-1278 -1302 0
-1278 -1303 0
-1278 -1304 0
-1278 -1305 0
-1278 -1306 0
-1278 -1307 0
-1278 -1308 0
-1278 -1309 0
-1278 -1310 0
-1278 -1311 0
-1278 -1312 0
-1278 -1313 0
-1278 -1314 0
-1279 -1280 0
-1279 -1281 0
-1279 -1282 0
-1279 -1283 0
-1279 -1284 0
-1279 -1285 0
-1279 -1286 0
-1279 -1287 0
-1279 -1288 0
-1279 -1289 0
-1279 -1290 0
-1279 -1291 0
-1279 -1292 0
-1279 -1293 0
-1279 -1294 0
-1279 -1295 0
-1279 -1296 0
-1279 -1297 0
-1279 -1298 0
-1279 -1299 0
-1279 -1300 0
-1279 -1301 0
-1279 -1302 0
-1279 -1303 0
-1279 -1304 0
-1279 -1305 0
-1279 -1306 0
-1279 -1307 0
-1279 -1308 0
-1279 -1309 0
-1279 -1310 0
-1279 -1311 0
-1279 -1312 0
-1279 -1313 0
-1279 -1314 0
-1280 -1281 0
-1280 -1282 0
-1280 -1283 0
-1280 -1284 0
-1280 -1285 0
-1280 -1286 0
-1280 -1287 0
-1280 -1288 0
-1280 -1289 0
-1280 -1290 0
-1280 -1291 0
-1280 -1292 0
-1280 -1293 0
-1280 -1294 0
-1280 -1295 0
-1280 -1296 0
-1280 -1297 0
-1280 -1298 0
-1280 -1299 0
-1280 -1300 0
-1280 -1301 0
-1280 -1302 0
-1280 -1303 0
-1280 -1304 0
-1280 -1305 0
-1280 -1306 0
-1280 -1307 0
-1280 -1308 0
-1280 -1309 0
-1280 -1310 0
-1280 -1311 0
-1280 -1312 0
-1280 -1313 0
-1280 -1314 0
-1281 -1282 0
-1281 -1283 0
-1281 -1284 0
-1281 -1285 0
-1281 -1286 0
-1281 -1287 0
-1281 -1288 0
-1281 -1289 0
-1281 -1290 0
-1281 -1291 0
-1281 -1292 0
-1281 -1293 0
-1281 -1294 0
-1281 -1295 0
-1281 -1296 0
-1281 -1297 0
-1281 -1298 0
-1281 -1299 0
-1281 -1300 0
-1281 -1301 0
-1281 -1302 0
-1281 -1303 0
-1281 -1304 0
-1281 -1305 0
-1281 -1306 0
-1281 -1307 0
-1281 -1308 0
-1281 -1309 0
-1281 -1310 0
-1281 -1311 0
-1281 -1312 0
-1281 -1313 0
-1281 -1314 0
-1282 -1283 0
-1282 -1284 0
-1282 -1285 0
-1282 -1286 0
-1282 -1287 0
-1282 -1288 0
-1282 -1289 0
-1282 -1290 0
-1282 -1291 0
-1282 -1292 0
-1282 -1293 0
-1282 -1294 0
-1282 -1295 0
-1282 -1296 0
-1282 -1297 0
-1282 -1298 0
-1282 -1299 0
-1282 -1300 0
-1282 -1301 0
-1282 -1302 0
-1282 -1303 0
-1282 -1304 0
-1282 -1305 0
-1282 -1306 0
-1282 -1307 0
-1282 -1308 0
-1282 -1309 0
-1282 -1310 0
-1282 -1311 0
-1282 -1312 0
-1282 -1313 0
-1282 -1314 0
-1283 -1284 0
-1283 -1285 0
-1283 -1286 0
-1283 -1287 0
-1283 -1288 0
-1283 -1289 0
-1283 -1290 0
-1283 -1291 0
-1283 -1292 0
-1283 -1293 0
-1283 -1294 0
-1283 -1295 0
-1283 -1296 0
-1283 -1297 0
-1283 -1298 0
-1283 -1299 0
-1283 -1300 0
-1283 -1301 0
-1283 -1302 0
-1283 -1303 0
-1283 -1304 0
-1283 -1305 0
-1283 -1306 0
-1283 -1307 0
-1283 -1308 0
-1283 -1309 0
-1283 -1310 0
-1283 -1311 0
-1283 -1312 0
-1283 -1313 0
-1283 -1314 0
-1284 -1285 0
-1284 -1286 0
-1284 -1287 0
-1284 -1288 0
-1284 -1289 0
-1284 -1290 0
-1284 -1291 0
-1284 -1292 0
-1284 -1293 0
-1284 -1294 0
-1284 -1295 0
-1284 -1296 0
-1284 -1297 0
-1284 -1298 0
-1284 -1299 0
-1284 -1300 0
-1284 -1301 0
-1284 -1302 0
-1284 -1303 0
-1284 -1304 0
-1284 -1305 0
-1284 -1306 0
-1284 -1307 0
-1284 -1308 0
-1284 -1309 0
-1284 -1310 0
-1284 -1311 0
-1284 -1312 0
-1284 -1313 0
-1284 -1314 0
-1285 -1286 0
-1285 -1287 0
-1285 -1288 0
-1285 -1289 0
-1285 -1290 0
-1285 -1291 0
-1285 -1292 0
-1285 -1293 0
-1285 -1294 0
-1285 -1295 0
-1285 -1296 0
-1285 -1297 0
-1285 -1298 0
-1285 -1299 0
-1285 -1300 0
-1285 -1301 0
-1285 -1302 0
-1285 -1303 0
-1285 -1304 0
-1285 -1305 0
-1285 -1306 0
-1285 -1307 0
-1285 -1308 0
-1285 -1309 0
-1285 -1310 0
-1285 -1311 0
-1285 -1312 0
-1285 -1313 0
-1285 -1314 0
-1286 -1287 0
-1286 -1288 0
-1286 -1289 0
-1286 -1290 0
-1286 -1291 0
-1286 -1292 0
-1286 -1293 0
-1286 -1294 0
-1286 -1295 0
-1286 -1296 0
-1286 -1297 0
-1286 -1298 0
-1286 -1299 0
-1286 -1300 0
-1286 -1301 0
-1286 -1302 0
-1286 -1303 0
-1286 -1304 0
-1286 -1305 0
-1286 -1306 0
-1286 -1307 0
-1286 -1308 0
-1286 -1309 0
-1286 -1310 0
-1286 -1311 0
-1286 -1312 0
-1286 -1313 0
-1286 -1314 0
-1287 -1288 0
-1287 -1289 0
-1287 -1290 0
-1287 -1291 0
-1287 -1292 0
-1287 -1293 0
-1287 -1294 0
-1287 -1295 0
-1287 -1296 0
-1287 -1297 0
-1287 -1298 0
-1287 -1299 0
-1287 -1300 0
-1287 -1301 0
-1287 -1302 0
-1287 -1303 0
-1287 -1304 0
-1287 -1305 0
-1287 -1306 0
-1287 -1307 0
-1287 -1308 0
-1287 -1309 0
-1287 -1310 0
-1287 -1311 0
-1287 -1312 0
-1287 -1313 0
-1287 -1314 0
-1288 -1289 0
-1288 -1290 0
-1288 -1291 0
-1288 -1292 0
-1288 -1293 0
-1288 -1294 0
-1288 -1295 0
-1288 -1296 0
-1288 -1297 0
-1288 -1298 0
-1288 -1299 0
-1288 -1300 0
-1288 -1301 0
-1288 -1302 0
-1288 -1303 0
-1288 -1304 0
-1288 -1305 0
-1288 -1306 0
-1288 -1307 0
-1288 -1308 0
-1288 -1309 0
-1288 -1310 0
-1288 -1311 0
-1288 -1312 0
-1288 -1313 0
-1288 -1314 0
-1289 -1290 0
-1289 -1291 0
-1289 -1292 0
-1289 -1293 0
-1289 -1294 0
-1289 -1295 0
-1289 -1296 0
-1289 -1297 0
-1289 -1298 0
-1289 -1299 0
-1289 -1300 0
-1289 -1301 0
-1289 -1302 0
-1289 -1303 0
-1289 -1304 0
-1289 -1305 0
-1289 -1306 0
-1289 -1307 0
-1289 -1308 0
-1289 -1309 0
-1289 -1310 0
-1289 -1311 0
-1289 -1312 0
-1289 -1313 0
-1289 -1314 0
-1290 -1291 0
-1290 -1292 0
-1290 -1293 0
-1290 -1294 0
-1290 -1295 0
-1290 -1296 0
-1290 -1297 0
-1290 -1298 0
-1290 -1299 0
-1290 -1300 0
-1290 -1301 0
-1290 -1302 0
-1290 -1303 0
-1290 -1304 0
-1290 -1305 0
-1290 -1306 0
-1290 -1307 0
-1290 -1308 0
-1290 -1309 0
-1290 -1310 0
-1290 -1311 0
-1290 -1312 0
-1290 -1313 0
-1290 -1314 0
-1291 -1292 0
-1291 -1293 0
-1291 -1294 0
-1291 -1295 0
-1291 -1296 0
-1291 -1297 0
-1291 -1298 0
-1291 -1299 0
-1291 -1300 0
-1291 -1301 0
-1291 -1302 0
-1291 -1303 0
-1291 -1304 0
-1291 -1305 0
-1291 -1306 0
-1291 -1307 0
-1291 -1308 0
-1291 -1309 0
-1291 -1310 0
-1291 -1311 0
-1291 -1312 0
-1291 -1313 0
-1291 -1314 0
-1292 -1293 0
-1292 -1294 0
-1292 -1295 0
-1292 -1296 0
-1292 -1297 0
-1292 -1298 0
-1292 -1299 0
-1292 -1300 0
-1292 -1301 0
-1292 -1302 0
-1292 -1303 0
-1292 -1304 0
-1292 -1305 0
-1292 -1306 0
-1292 -1307 0
-1292 -1308 0
-1292 -1309 0
-1292 -1310 0
-1292 -1311 0
-1292 -1312 0
-1292 -1313 0
-1292 -1314 0
-1293 -1294 0
-1293 -1295 0
-1293 -1296 0
-1293 -1297 0
-1293 -1298 0
-1293 -1299 0
-1293 -1300 0
-1293 -1301 0
-1293 -1302 0
-1293 -1303 0
-1293 -1304 0
-1293 -1305 0
-1293 -1306 0
-1293 -1307 0
-1293 -1308 0
-1293 -1309 0
-1293 -1310 0
-1293 -1311 0
-1293 -1312 0
-1293 -1313 0
-1293 -1314 0
-1294 -1295 0
-1294 -1296 0
-1294 -1297 0
-1294 -1298 0
-1294 -1299 0
-1294 -1300 0
-1294 -1301 0
-1294 -1302 0
-1294 -1303 0
-1294 -1304 0
-1294 -1305 0
-1294 -1306 0
-1294 -1307 0
-1294 -1308 0
-1294 -1309 0
-1294 -1310 0
-1294 -1311 0
-1294 -1312 0
-1294 -1313 0
-1294 -1314 0
-1295 -1296 0
-1295 -1297 0
-1295 -1298 0
-1295 -1299 0
-1295 -1300 0
-1295 -1301 0
-1295 -1302 0
-1295 -1303 0
-1295 -1304 0
-1295 -1305 0
-1295 -1306 0
-1295 -1307 0
-1295 -1308 0
-1295 -1309 0
-1295 -1310 0
-1295 -1311 0
-1295 -1312 0
-1295 -1313 0
-1295 -1314 0
-1296 -1297 0
-1296 -1298 0
-1296 -1299 0
-1296 -1300 0
-1296 -1301 0
-1296 -1302 0
-1296 -1303 0
-1296 -1304 0
-1296 -1305 0
-1296 -1306 0
-1296 -1307 0
-1296 -1308 0
-1296 -1309 0
-1296 -1310 0
-1296 -1311 0
-1296 -1312 0
-1296 -1313 0
-1296 -1314 0
-1297 -1298 0
-1297 -1299 0
-1297 -1300 0
-1297 -1301 0
-1297 -1302 0
-1297 -1303 0
-1297 -1304 0
-1297 -1305 0
-1297 -1306 0
-1297 -1307 0
-1297 -1308 0
-1297 -1309 0
-1297 -1310 0
-1297 -1311 0
-1297 -1312 0
-1297 -1313 0
-1297 -1314 0
-1298 -1299 0
-1298 -1300 0
-1298 -1301 0
-1298 -1302 0
-1298 -1303 0
-1298 -1304 0
-1298 -1305 0
-1298 -1306 0
-1298 -1307 0
-1298 -1308 0
-1298 -1309 0
-1298 -1310 0
-1298 -1311 0
-1298 -1312 0
-1298 -1313 0
-1298 -1314 0
-1299 -1300 0
-1299 -1301 0
-1299 -1302 0
-1299 -1303 0
-1299 -1304 0
-1299 -1305 0
-1299 -1306 0
-1299 -1307 0
-1299 -1308 0
-1299 -1309 0
-1299 -1310 0
-1299 -1311 0
-1299 -1312 0
-1299 -1313 0
-1299 -1314 0
-1300 -1301 0
-1300 -1302 0
-1300 -1303 0
-1300 -1304 0
-1300 -1305 0
-1300 -1306 0
-1300 -1307 0
-1300 -1308 0
-1300 -1309 0
-1300 -1310 0
-1300 -1311 0
-1300 -1312 0
-1300 -1313 0
-1300 -1314 0
-1301 -1302 0
-1301 -1303 0
-1301 -1304 0
-1301 -1305 0
-1301 -1306 0
-1301 -1307 0
-1301 -1308 0
-1301 -1309 0
-1301 -1310 0
-1301 -1311 0
-1301 -1312 0
-1301 -1313 0
-1301 -1314 0
-1302 -1303 0
-1302 -1304 0
-1302 -1305 0
-1302 -1306 0
-1302 -1307 0
-1302 -1308 0
-1302 -1309 0
-1302 -1310 0
-1302 -1311 0
-1302 -1312 0
-1302 -1313 0
-1302 -1314 0
-1303 -1304 0
-1303 -1305 0
-1303 -1306 0
-1303 -1307 0
-1303 -1308 0
-1303 -1309 0
-1303 -1310 0
-1303 -1311 0
-1303 -1312 0
-1303 -1313 0
-1303 -1314 0
-1304 -1305 0
-1304 -1306 0
-1304 -1307 0
-1304 -1308 0
-1304 -1309 0
-1304 -1310 0
-1304 -1311 0
-1304 -1312 0
-1304 -1313 0
-1304 -1314 0
-1305 -1306 0
-1305 -1307 0
-1305 -1308 0
-1305 -1309 0
-1305 -1310 0
-1305 -1311 0
-1305 -1312 0
-1305 -1313 0
-1305 -1314 0
-1306 -1307 0
-1306 -1308 0
-1306 -1309 0
-1306 -1310 0
-1306 -1311 0
-1306 -1312 0
-1306 -1313 0
-1306 -1314 0
-1307 -1308 0
-1307 -1309 0
-1307 -1310 0
-1307 -1311 0
-1307 -1312 0
-1307 -1313 0
-1307 -1314 0
-1308 -1309 0
-1308 -1310 0
-1308 -1311 0
-1308 -1312 0
-1308 -1313 0
-1308 -1314 0
-1309 -1310 0
-1309 -1311 0
-1309 -1312 0
-1309 -1313 0
-1309 -1314 0
-1310 -1311 0
-1310 -1312 0
-1310 -1313 0
-1310 -1314 0
-1311 -1312 0
-1311 -1313 0
-1311 -1314 0
-1312 -1313 0
-1312 -1314 0
-1313 -1314 0
-597 746 1231 1232 1233 1234 1235 1236 1237 1238 1239 1240 1241 1242 1243 1244 1245 1246 1247 1248 1249 1250 1251 1252 1253 1254 0
597 -746 1231 1232 1233 1234 1235 1236 1237 1238 1239 1240 1241 1242 1243 1244 1245 1246 1247 1248 1249 1250 1251 1252 1253 1254 0
-598 747 1231 1232 1233 1234 1235 1236 1237 1238 1239 1240 1241 1242 1243 1244 1245 1246 1247 1248 1249 1250 1251 1252 1253 1254 0
598 -747 1231 1232 1233 1234 1235 1236 1237 1238 1239 1240 1241 1242 1243 1244 1245 1246 1247 1248 1249 1250 1251 1252 1253 1254 0
-599 748 1231 1232 1233 1234 1235 1236 1237 1238 1239 1240 1241 1242 1243 1244 1245 1246 1247 1248 1249 1250 1251 1252 1253 1254 0
599 -748 1231 1232 1233 1234 1235 1236 1237 1238 1239 1240 1241 1242 1243 1244 1245 1246 1247 1248 1249 1250 1251 1252 1253 1254 0
-600 749 1231 1232 1233 1234 1235 1236 1237 1238 1239 1240 1241 1242 1243 1244 1245 1246 1247 1248 1249 1250 1251 1252 1253 1254 0
600 -749 1231 1232 1233 1234 1235 1236 1237 1238 1239 1240 1241 1242 1243 1244 1245 1246 1247 1248 1249 1250 1251 1252 1253 1254 0
-601 750 1231 1232 1233 1234 1235 1236 1237 1238 1239 1240 1241 1242 1243 1244 1245 1246 1247 1248 1249 1250 1251 1252 1253 1254 0
601 -750 1231 1232 1233 1234 1235 1236 1237 1238 1239 1240 1241 1242 1243 1244 1245 1246 1247 1248 1249 1250 1251 1252 1253 1254 0
-602 751 1231 1232 1233 1234 1235 1236 1237 1238 1239 1240 1241 1242 1243 1244 1245 1246 1247 1248 1249 1250 1251 1252 1253 1254 0
602 -751 1231 1232 1233 1234 1235 1236 1237 1238 1239 1240 1241 1242 1243 1244 1245 1246 1247 1248 1249 1250 1251 1252 1253 1254 0
-603 752 1231 1232 1233 1234 1235 1236 1237 1238 1239 1240 1241 1242 1243 1244 1245 1246 1247 1248 1249 1250 1251 1252 1253 1254 0
603 -752 1231 1232 1233 1234 1235 1236 1237 1238 1239 1240 1241 1242 1243 1244 1245 1246 1247 1248 1249 1250 1251 1252 1253 1254 0
-604 753 1231 1232 1233 1234 1235 1236 1237 1238 1239 1240 1241 1242 1243 1244 1245 1246 1247 1248 1249 1250 1251 1252 1253 1254 0
604 -753 1231 1232 1233 1234 1235 1236 1237 1238 1239 1240 1241 1242 1243 1244 1245 1246 1247 1248 1249 1250 1251 1252 1253 1254 0
-605 754 1231 1232 1233 1234 1235 1236 1237 1238 1239 1240 1241 1242 1243 1244 1245 1246 1247 1248 1249 1250 1251 1252 1253 1254 0
605 -754 1231 1232 1233 1234 1235 1236 1237 1238 1239 1240 1241 1242 1243 1244 1245 1246 1247 1248 1249 1250 1251 1252 1253 1254 0
-606 755 1231 1232 1233 1234 1235 1236 1237 1238 1239 1240 1241 1242 1243 1244 1245 1246 1247 1248 1249 1250 1251 1252 1253 1254 0
606 -755 1231 1232 1233 1234 1235 1236 1237 1238 1239 1240 1241 1242 1243 1244 1245 1246 1247 1248 1249 1250 1251 1252 1253 1254 0
-656 805 1255 1256 1257 1258 1259 1260 1261 1262 1263 1264 1265 1266 1267 1268 1269 1270 1271 1272 1273 1274 1275 1276 1277 1278 0
656 -805 1255 1256 1257 1258 1259 1260 1261 1262 1263 1264 1265 1266 1267 1268 1269 1270 1271 1272 1273 1274 1275 1276 1277 1278 0
-657 806 1255 1256 1257 1258 1259 1260 1261 1262 1263 1264 1265 1266 1267 1268 1269 1270 1271 1272 1273 1274 1275 1276 1277 1278 0
657 -806 1255 1256 1257 1258 1259 1260 1261 1262 1263 1264 1265 1266 1267 1268 1269 1270 1271 1272 1273 1274 1275 1276 1277 1278 0
-658 807 1255 1256 1257 1258 1259 1260 1261 1262 1263 1264 1265 1266 1267 1268 1269 1270 1271 1272 1273 1274 1275 1276 1277 1278 0
658 -807 1255 1256 1257 1258 1259 1260 1261 1262 1263 1264 1265 1266 1267 1268 1269 1270 1271 1272 1273 1274 1275 1276 1277 1278 0
-659 808 1255 1256 1257 1258 1259 1260 1261 1262 1263 1264 1265 1266 1267 1268 1269 1270 1271 1272 1273 1274 1275 1276 1277 1278 0
659 -808 1255 1256 1257 1258 1259 1260 1261 1262 1263 1264 1265 1266 1267 1268 1269 1270 1271 1272 1273 1274 1275 1276 1277 1278 0
-660 809 1255 1256 1257 1258 1259 1260 1261 1262 1263 1264 1265 1266 1267 1268 1269 1270 1271 1272 1273 1274 1275 1276 1277 1278 0
660 -809 1255 1256 1257 1258 1259 1260 1261 1262 1263 1264 1265 1266 1267 1268 1269 1270 1271 1272 1273 1274 1275 1276 1277 1278 0
-661 810 1255 1256 1257 1258 1259 1260 1261 1262 1263 1264 1265 1266 1267 1268 1269 1270 1271 1272 1273 1274 1275 1276 1277 1278 0
661 -810 1255 1256 1257 1258 1259 1260 1261 1262 1263 1264 1265 1266 1267 1268 1269 1270 1271 1272 1273 1274 1275 1276 1277 1278 0
-662 811 1255 1256 1257 1258 1259 1260 1261 1262 1263 1264 1265 1266 1267 1268 1269 1270 1271 1272 1273 1274 1275 1276 1277 1278 0
662 -811 1255 1256 1257 1258 1259 1260 1261 1262 1263 1264 1265 1266 1267 1268 1269 1270 1271 1272 1273 1274 1275 1276 1277 1278 0
-663 812 1255 1256 1257 1258 1259 1260 1261 1262 1263 1264 1265 1266 1267 1268 1269 1270 1271 1272 1273 1274 1275 1276 1277 1278 0
663 -812 1255 1256 1257 1258 1259 1260 1261 1262 1263 1264 1265 1266 1267 1268 1269 1270 1271 1272 1273 1274 1275 1276 1277 1278 0
-664 813 1255 1256 1257 1258 1259 1260 1261 1262 1263 1264 1265 1266 1267 1268 1269 1270 1271 1272 1273 1274 1275 1276 1277 1278 0
664 -813 1255 1256 1257 1258 1259 1260 1261 1262 1263 1264 1265 1266 1267 1268 1269 1270 1271 1272 1273 1274 1275 1276 1277 1278 0
-665 814 1255 1256 1257 1258 1259 1260 1261 1262 1263 1264 1265 1266 1267 1268 1269 1270 1271 1272 1273 1274 1275 1276 1277 1278 0
665 -814 1255 1256 1257 1258 1259 1260 1261 1262 1263 1264 1265 1266 1267 1268 1269 1270 1271 1272 1273 1274 1275 1276 1277 1278 0
-691 840 1279 1280 1281 1282 1283 1284 1285 1286 1287 1288 1289 1290 1291 1292 1293 1294 1295 1296 1297 1298 0
691 -840 1279 1280 1281 1282 1283 1284 1285 1286 1287 1288 1289 1290 1291 1292 1293 1294 1295 1296 1297 1298 0
-692 841 1279 1280 1281 1282 1283 1284 1285 1286 1287 1288 1289 1290 1291 1292 1293 1294 1295 1296 1297 1298 0
692 -841 1279 1280 1281 1282 1283 1284 1285 1286 1287 1288 1289 1290 1291 1292 1293 1294 1295 1296 1297 1298 0
-693 842 1279 1280 1281 1282 1283 1284 1285 1286 1287 1288 1289 1290 1291 1292 1293 1294 1295 1296 1297 1298 0
693 -842 1279 1280 1281 1282 1283 1284 1285 1286 1287 1288 1289 1290 1291 1292 1293 1294 1295 1296 1297 1298 0
-694 843 1279 1280 1281 1282 1283 1284 1285 1286 1287 1288 1289 1290 1291 1292 1293 1294 1295 1296 1297 1298 0
694 -843 1279 1280 1281 1282 1283 1284 1285 1286 1287 1288 1289 1290 1291 1292 1293 1294 1295 1296 1297 1298 0
-695 844 1279 1280 1281 1282 1283 1284 1285 1286 1287 1288 1289 1290 1291 1292 1293 1294 1295 1296 1297 1298 0
695 -844 1279 1280 1281 1282 1283 1284 1285 1286 1287 1288 1289 1290 1291 1292 1293 1294 1295 1296 1297 1298 0
-696 845 1279 1280 1281 1282 1283 1284 1285 1286 1287 1288 1289 1290 1291 1292 1293 1294 1295 1296 1297 1298 0
696 -845 1279 1280 1281 1282 1283 1284 1285 1286 1287 1288 1289 1290 1291 1292 1293 1294 1295 1296 1297 1298 0
-697 846 1279 1280 1281 1282 1283 1284 1285 1286 1287 1288 1289 1290 1291 1292 1293 1294 1295 1296 1297 1298 0
697 -846 1279 1280 1281 1282 1283 1284 1285 1286 1287 1288 1289 1290 1291 1292 1293 1294 1295 1296 1297 1298 0
-698 847 1279 1280 1281 1282 1283 1284 1285 1286 1287 1288 1289 1290 1291 1292 1293 1294 1295 1296 1297 1298 0
698 -847 1279 1280 1281 1282 1283 1284 1285 1286 1287 1288 1289 1290 1291 1292 1293 1294 1295 1296 1297 1298 0
-699 848 1279 1280 1281 1282 1283 1284 1285 1286 1287 1288 1289 1290 1291 1292 1293 1294 1295 1296 1297 1298 0
699 -848 1279 1280 1281 1282 1283 1284 1285 1286 1287 1288 1289 1290 1291 1292 1293 1294 1295 1296 1297 1298 0
-721 870 1299 1300 1301 1302 1303 1304 1305 1306 1307 1308 1309 1310 1311 1312 1313 1314 0
721 -870 1299 1300 1301 1302 1303 1304 1305 1306 1307 1308 1309 1310 1311 1312 1313 1314 0
-722 871 1299 1300 1301 1302 1303 1304 1305 1306 1307 1308 1309 1310 1311 1312 1313 1314 0
722 -871 1299 1300 1301 1302 1303 1304 1305 1306 1307 1308 1309 1310 1311 1312 1313 1314 0
-723 872 1299 1300 1301 1302 1303 1304 1305 1306 1307 1308 1309 1310 1311 1312 1313 1314 0
723 -872 1299 1300 1301 1302 1303 1304 1305 1306 1307 1308 1309 1310 1311 1312 1313 1314 0
-724 873 1299 1300 1301 1302 1303 1304 1305 1306 1307 1308 1309 1310 1311 1312 1313 1314 0
724 -873 1299 1300 1301 1302 1303 1304 1305 1306 1307 1308 1309 1310 1311 1312 1313 1314 0
-725 874 1299 1300 1301 1302 1303 1304 1305 1306 1307 1308 1309 1310 1311 1312 1313 1314 0
725 -874 1299 1300 1301 1302 1303 1304 1305 1306 1307 1308 1309 1310 1311 1312 1313 1314 0
-726 875 1299 1300 1301 1302 1303 1304 1305 1306 1307 1308 1309 1310 1311 1312 1313 1314 0
726 -875 1299 1300 1301 1302 1303 1304 1305 1306 1307 1308 1309 1310 1311 1312 1313 1314 0
-727 876 1299 1300 1301 1302 1303 1304 1305 1306 1307 1308 1309 1310 1311 1312 1313 1314 0
727 -876 1299 1300 1301 1302 1303 1304 1305 1306 1307 1308 1309 1310 1311 1312 1313 1314 0
-728 877 1299 1300 1301 1302 1303 1304 1305 1306 1307 1308 1309 1310 1311 1312 1313 1314 0
728 -877 1299 1300 1301 1302 1303 1304 1305 1306 1307 1308 1309 1310 1311 1312 1313 1314 0
