p cnf 1081 23709
1 2 3 4 5 6 0
-1 -2 0
-1 -3 0
-1 -4 0
-1 -5 0
-1 -6 0
-2 -3 0
-2 -4 0
-2 -5 0
-2 -6 0
-3 -4 0
-3 -5 0
-3 -6 0
-4 -5 0
-4 -6 0
-5 -6 0
7 8 9 10 0
-7 -8 0
-7 -9 0
-7 -10 0
-8 -9 0
-8 -10 0
-9 -10 0
-11 1 0
-11 7 0
-1 -7 11 0
-11 15 12 13 14 0
-11 -15 -12 0
-11 -15 -13 0
-11 -15 -14 0
-16 1 0
-16 8 0
-1 -8 16 0
-16 17 0
-16 15 13 14 0
-16 -15 -13 0
-16 -15 -14 0
-18 1 0
-18 9 0
-1 -9 18 0
-18 12 0
-18 15 14 0
-18 -15 -14 0
-19 1 0
-19 10 0
-1 -10 19 0
-19 13 0
-19 15 0
-20 2 0
-20 7 0
-2 -7 20 0
-20 15 21 22 23 0
-20 -15 -21 0
-20 -15 -22 0
-20 -15 -23 0
-24 2 0
-24 8 0
-2 -8 24 0
-24 25 0
-24 15 22 23 0
-24 -15 -22 0
-24 -15 -23 0
-26 2 0
-26 9 0
-2 -9 26 0
-26 21 0
-26 15 23 0
-26 -15 -23 0
-27 2 0
-27 10 0
-2 -10 27 0
-27 22 0
-27 15 0
-28 3 0
-28 7 0
-3 -7 28 0
-28 15 29 30 31 0
-28 -15 -29 0
-28 -15 -30 0
-28 -15 -31 0
-32 3 0
-32 8 0
-3 -8 32 0
-32 33 0
-32 15 30 31 0
-32 -15 -30 0
-32 -15 -31 0
-34 3 0
-34 9 0
-3 -9 34 0
-34 29 0
-34 15 31 0
-34 -15 -31 0
-35 3 0
-35 10 0
-3 -10 35 0
-35 30 0
-35 15 0
-36 4 0
-36 7 0
-4 -7 36 0
-36 15 37 38 39 0
-36 -15 -37 0
-36 -15 -38 0
-36 -15 -39 0
-40 4 0
-40 8 0
-4 -8 40 0
-40 41 0
-40 15 38 39 0
-40 -15 -38 0
-40 -15 -39 0
-42 4 0
-42 9 0
-4 -9 42 0
-42 37 0
-42 15 39 0
-42 -15 -39 0
-43 4 0
-43 10 0
-4 -10 43 0
-43 38 0
-43 15 0
-44 5 0
-44 7 0
-5 -7 44 0
-44 15 45 46 47 0
-44 -15 -45 0
-44 -15 -46 0
-44 -15 -47 0
-48 5 0
-48 8 0
-5 -8 48 0
-48 49 0
-48 15 46 47 0
-48 -15 -46 0
-48 -15 -47 0
-50 5 0
-50 9 0
-5 -9 50 0
-50 45 0
-50 15 47 0
-50 -15 -47 0
-51 5 0
-51 10 0
-5 -10 51 0
-51 46 0
-51 15 0
-52 6 0
-52 7 0
-6 -7 52 0
-52 15 53 54 55 0
-52 -15 -53 0
-52 -15 -54 0
-52 -15 -55 0
-56 6 0
-56 8 0
-6 -8 56 0
-56 57 0
-56 15 54 55 0
-56 -15 -54 0
-56 -15 -55 0
-58 6 0
-58 9 0
-6 -9 58 0
-58 53 0
-58 15 55 0
-58 -15 -55 0
-59 6 0
-59 10 0
-6 -10 59 0
-59 54 0
-59 15 0
60 61 62 63 64 65 0
-60 -61 0
-60 -62 0
-60 -63 0
-60 -64 0
-60 -65 0
-61 -62 0
-61 -63 0
-61 -64 0
-61 -65 0
-62 -63 0
-62 -64 0
-62 -65 0
-63 -64 0
-63 -65 0
-64 -65 0
66 67 68 69 0
-66 -67 0
-66 -68 0
-66 -69 0
-67 -68 0
-67 -69 0
-68 -69 0
-70 60 0
-70 66 0
-60 -66 70 0
-70 71 12 13 14 0
-70 -71 -12 0
-70 -71 -13 0
-70 -71 -14 0
-72 60 0
-72 67 0
-60 -67 72 0
-72 17 0
-72 71 13 14 0
-72 -71 -13 0
-72 -71 -14 0
-73 60 0
-73 68 0
-60 -68 73 0
-73 12 0
-73 71 14 0
-73 -71 -14 0
-74 60 0
-74 69 0
-60 -69 74 0
-74 13 0
-74 71 0
-75 61 0
-75 66 0
-61 -66 75 0
-75 71 21 22 23 0
-75 -71 -21 0
-75 -71 -22 0
-75 -71 -23 0
-76 61 0
-76 67 0
-61 -67 76 0
-76 25 0
-76 71 22 23 0
-76 -71 -22 0
-76 -71 -23 0
-77 61 0
-77 68 0
-61 -68 77 0
-77 21 0
-77 71 23 0
-77 -71 -23 0
-78 61 0
-78 69 0
-61 -69 78 0
-78 22 0
-78 71 0
-79 62 0
-79 66 0
-62 -66 79 0
-79 71 29 30 31 0
-79 -71 -29 0
-79 -71 -30 0
-79 -71 -31 0
-80 62 0
-80 67 0
-62 -67 80 0
-80 33 0
-80 71 30 31 0
-80 -71 -30 0
-80 -71 -31 0
-81 62 0
-81 68 0
-62 -68 81 0
-81 29 0
-81 71 31 0
-81 -71 -31 0
-82 62 0
-82 69 0
-62 -69 82 0
-82 30 0
-82 71 0
-83 63 0
-83 66 0
-63 -66 83 0
-83 71 37 38 39 0
-83 -71 -37 0
-83 -71 -38 0
-83 -71 -39 0
-84 63 0
-84 67 0
-63 -67 84 0
-84 41 0
-84 71 38 39 0
-84 -71 -38 0
-84 -71 -39 0
-85 63 0
-85 68 0
-63 -68 85 0
-85 37 0
-85 71 39 0
-85 -71 -39 0
-86 63 0
-86 69 0
-63 -69 86 0
-86 38 0
-86 71 0
-87 64 0
-87 66 0
-64 -66 87 0
-87 71 45 46 47 0
-87 -71 -45 0
-87 -71 -46 0
-87 -71 -47 0
-88 64 0
-88 67 0
-64 -67 88 0
-88 49 0
-88 71 46 47 0
-88 -71 -46 0
-88 -71 -47 0
-89 64 0
-89 68 0
-64 -68 89 0
-89 45 0
-89 71 47 0
-89 -71 -47 0
-90 64 0
-90 69 0
-64 -69 90 0
-90 46 0
-90 71 0
-91 65 0
-91 66 0
-65 -66 91 0
-91 71 53 54 55 0
-91 -71 -53 0
-91 -71 -54 0
-91 -71 -55 0
-92 65 0
-92 67 0
-65 -67 92 0
-92 57 0
-92 71 54 55 0
-92 -71 -54 0
-92 -71 -55 0
-93 65 0
-93 68 0
-65 -68 93 0
-93 53 0
-93 71 55 0
-93 -71 -55 0
-94 65 0
-94 69 0
-65 -69 94 0
-94 54 0
-94 71 0
95 96 97 98 99 0
-95 -96 0
-95 -97 0
-95 -98 0
-95 -99 0
-96 -97 0
-96 -98 0
-96 -99 0
-97 -98 0
-97 -99 0
-98 -99 0
100 101 102 103 0
-100 -101 0
-100 -102 0
-100 -103 0
-101 -102 0
-101 -103 0
-102 -103 0
-104 95 0
-104 100 0
-95 -100 104 0
-104 105 12 13 14 21 22 23 0
-104 -105 -12 0
-104 -105 -13 0
-104 -105 -14 0
-104 -105 -21 0
-104 -105 -22 0
-104 -105 -23 0
-106 95 0
-106 101 0
-95 -101 106 0
-106 17 25 0
-106 105 13 14 22 23 0
-106 -105 -13 0
-106 -105 -14 0
-106 -105 -22 0
-106 -105 -23 0
-107 95 0
-107 102 0
-95 -102 107 0
-107 12 21 0
-107 105 14 23 0
-107 -105 -14 0
-107 -105 -23 0
-108 95 0
-108 103 0
-95 -103 108 0
-108 13 22 0
-108 105 0
-109 96 0
-109 100 0
-96 -100 109 0
-109 105 21 22 23 29 30 31 0
-109 -105 -21 0
-109 -105 -22 0
-109 -105 -23 0
-109 -105 -29 0
-109 -105 -30 0
-109 -105 -31 0
-110 96 0
-110 101 0
-96 -101 110 0
-110 25 33 0
-110 105 22 23 30 31 0
-110 -105 -22 0
-110 -105 -23 0
-110 -105 -30 0
-110 -105 -31 0
-111 96 0
-111 102 0
-96 -102 111 0
-111 21 29 0
-111 105 23 31 0
-111 -105 -23 0
-111 -105 -31 0
-112 96 0
-112 103 0
-96 -103 112 0
-112 22 30 0
-112 105 0
-113 97 0
-113 100 0
-97 -100 113 0
-113 105 29 30 31 37 38 39 0
-113 -105 -29 0
-113 -105 -30 0
-113 -105 -31 0
-113 -105 -37 0
-113 -105 -38 0
-113 -105 -39 0
-114 97 0
-114 101 0
-97 -101 114 0
-114 33 41 0
-114 105 30 31 38 39 0
-114 -105 -30 0
-114 -105 -31 0
-114 -105 -38 0
-114 -105 -39 0
-115 97 0
-115 102 0
-97 -102 115 0
-115 29 37 0
-115 105 31 39 0
-115 -105 -31 0
-115 -105 -39 0
-116 97 0
-116 103 0
-97 -103 116 0
-116 30 38 0
-116 105 0
-117 98 0
-117 100 0
-98 -100 117 0
-117 105 37 38 39 45 46 47 0
-117 -105 -37 0
-117 -105 -38 0
-117 -105 -39 0
-117 -105 -45 0
-117 -105 -46 0
-117 -105 -47 0
-118 98 0
-118 101 0
-98 -101 118 0
-118 41 49 0
-118 105 38 39 46 47 0
-118 -105 -38 0
-118 -105 -39 0
-118 -105 -46 0
-118 -105 -47 0
-119 98 0
-119 102 0
-98 -102 119 0
-119 37 45 0
-119 105 39 47 0
-119 -105 -39 0
-119 -105 -47 0
-120 98 0
-120 103 0
-98 -103 120 0
-120 38 46 0
-120 105 0
-121 99 0
-121 100 0
-99 -100 121 0
-121 105 45 46 47 53 54 55 0
-121 -105 -45 0
-121 -105 -46 0
-121 -105 -47 0
-121 -105 -53 0
-121 -105 -54 0
-121 -105 -55 0
-122 99 0
-122 101 0
-99 -101 122 0
-122 49 57 0
-122 105 46 47 54 55 0
-122 -105 -46 0
-122 -105 -47 0
-122 -105 -54 0
-122 -105 -55 0
-123 99 0
-123 102 0
-99 -102 123 0
-123 45 53 0
-123 105 47 55 0
-123 -105 -47 0
-123 -105 -55 0
-124 99 0
-124 103 0
-99 -103 124 0
-124 46 54 0
-124 105 0
125 126 127 128 0
-125 -126 0
-125 -127 0
-125 -128 0
-126 -127 0
-126 -128 0
-127 -128 0
129 130 131 132 0
-129 -130 0
-129 -131 0
-129 -132 0
-130 -131 0
-130 -132 0
-131 -132 0
-133 125 0
-133 129 0
-125 -129 133 0
-133 134 12 13 14 21 22 23 29 30 31 0
-133 -134 -12 0
-133 -134 -13 0
-133 -134 -14 0
-133 -134 -21 0
-133 -134 -22 0
-133 -134 -23 0
-133 -134 -29 0
-133 -134 -30 0
-133 -134 -31 0
-135 125 0
-135 130 0
-125 -130 135 0
-135 17 25 0
-135 17 33 0
-135 25 33 0
-135 134 13 14 22 23 30 31 0
-135 -134 -13 0
-135 -134 -14 0
-135 -134 -22 0
-135 -134 -23 0
-135 -134 -30 0
-135 -134 -31 0
-136 125 0
-136 131 0
-125 -131 136 0
-136 12 21 0
-136 12 29 0
-136 21 29 0
-136 134 14 23 31 0
-136 -134 -14 0
-136 -134 -23 0
-136 -134 -31 0
-137 125 0
-137 132 0
-125 -132 137 0
-137 13 22 0
-137 13 30 0
-137 22 30 0
-137 134 0
-138 126 0
-138 129 0
-126 -129 138 0
-138 134 21 22 23 29 30 31 37 38 39 0
-138 -134 -21 0
-138 -134 -22 0
-138 -134 -23 0
-138 -134 -29 0
-138 -134 -30 0
-138 -134 -31 0
-138 -134 -37 0
-138 -134 -38 0
-138 -134 -39 0
-139 126 0
-139 130 0
-126 -130 139 0
-139 25 33 0
-139 25 41 0
-139 33 41 0
-139 134 22 23 30 31 38 39 0
-139 -134 -22 0
-139 -134 -23 0
-139 -134 -30 0
-139 -134 -31 0
-139 -134 -38 0
-139 -134 -39 0
-140 126 0
-140 131 0
-126 -131 140 0
-140 21 29 0
-140 21 37 0
-140 29 37 0
-140 134 23 31 39 0
-140 -134 -23 0
-140 -134 -31 0
-140 -134 -39 0
-141 126 0
-141 132 0
-126 -132 141 0
-141 22 30 0
-141 22 38 0
-141 30 38 0
-141 134 0
-142 127 0
-142 129 0
-127 -129 142 0
-142 134 29 30 31 37 38 39 45 46 47 0
-142 -134 -29 0
-142 -134 -30 0
-142 -134 -31 0
-142 -134 -37 0
-142 -134 -38 0
-142 -134 -39 0
-142 -134 -45 0
-142 -134 -46 0
-142 -134 -47 0
-143 127 0
-143 130 0
-127 -130 143 0
-143 33 41 0
-143 33 49 0
-143 41 49 0
-143 134 30 31 38 39 46 47 0
-143 -134 -30 0
-143 -134 -31 0
-143 -134 -38 0
-143 -134 -39 0
-143 -134 -46 0
-143 -134 -47 0
-144 127 0
-144 131 0
-127 -131 144 0
-144 29 37 0
-144 29 45 0
-144 37 45 0
-144 134 31 39 47 0
-144 -134 -31 0
-144 -134 -39 0
-144 -134 -47 0
-145 127 0
-145 132 0
-127 -132 145 0
-145 30 38 0
-145 30 46 0
-145 38 46 0
-145 134 0
-146 128 0
-146 129 0
-128 -129 146 0
-146 134 37 38 39 45 46 47 53 54 55 0
-146 -134 -37 0
-146 -134 -38 0
-146 -134 -39 0
-146 -134 -45 0
-146 -134 -46 0
-146 -134 -47 0
-146 -134 -53 0
-146 -134 -54 0
-146 -134 -55 0
-147 128 0
-147 130 0
-128 -130 147 0
-147 41 49 0
-147 41 57 0
-147 49 57 0
-147 134 38 39 46 47 54 55 0
-147 -134 -38 0
-147 -134 -39 0
-147 -134 -46 0
-147 -134 -47 0
-147 -134 -54 0
-147 -134 -55 0
-148 128 0
-148 131 0
-128 -131 148 0
-148 37 45 0
-148 37 53 0
-148 45 53 0
-148 134 39 47 55 0
-148 -134 -39 0
-148 -134 -47 0
-148 -134 -55 0
-149 128 0
-149 132 0
-128 -132 149 0
-149 38 46 0
-149 38 54 0
-149 46 54 0
-149 134 0
-17 11 70 104 133 0
-11 17 0
-70 17 0
-104 17 0
-133 17 0
-11 -70 0
-11 -104 0
-11 -133 0
-70 -104 0
-70 -133 0
-104 -133 0
-12 16 72 106 135 0
-16 12 0
-72 12 0
-106 12 0
-135 12 0
-16 -72 0
-16 -106 0
-16 -135 0
-72 -106 0
-72 -135 0
-106 -135 0
-13 18 73 107 136 0
-18 13 0
-73 13 0
-107 13 0
-136 13 0
-18 -73 0
-18 -107 0
-18 -136 0
-73 -107 0
-73 -136 0
-107 -136 0
-14 19 74 108 137 0
-19 14 0
-74 14 0
-108 14 0
-137 14 0
-19 -74 0
-19 -108 0
-19 -137 0
-74 -108 0
-74 -137 0
-108 -137 0
-25 20 75 104 109 133 138 0
-20 25 0
-75 25 0
-104 25 0
-109 25 0
-133 25 0
-138 25 0
-20 -75 0
-20 -104 0
-20 -109 0
-20 -133 0
-20 -138 0
-75 -104 0
-75 -109 0
-75 -133 0
-75 -138 0
-104 -109 0
-104 -133 0
-104 -138 0
-109 -133 0
-109 -138 0
-133 -138 0
-21 24 76 106 110 135 139 0
-24 21 0
-76 21 0
-106 21 0
-110 21 0
-135 21 0
-139 21 0
-24 -76 0
-24 -106 0
-24 -110 0
-24 -135 0
-24 -139 0
-76 -106 0
-76 -110 0
-76 -135 0
-76 -139 0
-106 -110 0
-106 -135 0
-106 -139 0
-110 -135 0
-110 -139 0
-135 -139 0
-22 26 77 107 111 136 140 0
-26 22 0
-77 22 0
-107 22 0
-111 22 0
-136 22 0
-140 22 0
-26 -77 0
-26 -107 0
-26 -111 0
-26 -136 0
-26 -140 0
-77 -107 0
-77 -111 0
-77 -136 0
-77 -140 0
-107 -111 0
-107 -136 0
-107 -140 0
-111 -136 0
-111 -140 0
-136 -140 0
-23 27 78 108 112 137 141 0
-27 23 0
-78 23 0
-108 23 0
-112 23 0
-137 23 0
-141 23 0
-27 -78 0
-27 -108 0
-27 -112 0
-27 -137 0
-27 -141 0
-78 -108 0
-78 -112 0
-78 -137 0
-78 -141 0
-108 -112 0
-108 -137 0
-108 -141 0
-112 -137 0
-112 -141 0
-137 -141 0
-33 28 79 109 113 133 138 142 0
-28 33 0
-79 33 0
-109 33 0
-113 33 0
-133 33 0
-138 33 0
-142 33 0
-28 -79 0
-28 -109 0
-28 -113 0
-28 -133 0
-28 -138 0
-28 -142 0
-79 -109 0
-79 -113 0
-79 -133 0
-79 -138 0
-79 -142 0
-109 -113 0
-109 -133 0
-109 -138 0
-109 -142 0
-113 -133 0
-113 -138 0
-113 -142 0
-133 -138 0
-133 -142 0
-138 -142 0
-29 32 80 110 114 135 139 143 0
-32 29 0
-80 29 0
-110 29 0
-114 29 0
-135 29 0
-139 29 0
-143 29 0
-32 -80 0
-32 -110 0
-32 -114 0
-32 -135 0
-32 -139 0
-32 -143 0
-80 -110 0
-80 -114 0
-80 -135 0
-80 -139 0
-80 -143 0
-110 -114 0
-110 -135 0
-110 -139 0
-110 -143 0
-114 -135 0
-114 -139 0
-114 -143 0
-135 -139 0
-135 -143 0
-139 -143 0
-30 34 81 111 115 136 140 144 0
-34 30 0
-81 30 0
-111 30 0
-115 30 0
-136 30 0
-140 30 0
-144 30 0
-34 -81 0
-34 -111 0
-34 -115 0
-34 -136 0
-34 -140 0
-34 -144 0
-81 -111 0
-81 -115 0
-81 -136 0
-81 -140 0
-81 -144 0
-111 -115 0
-111 -136 0
-111 -140 0
-111 -144 0
-115 -136 0
-115 -140 0
-115 -144 0
-136 -140 0
-136 -144 0
-140 -144 0
-31 35 82 112 116 137 141 145 0
-35 31 0
-82 31 0
-112 31 0
-116 31 0
-137 31 0
-141 31 0
-145 31 0
-35 -82 0
-35 -112 0
-35 -116 0
-35 -137 0
-35 -141 0
-35 -145 0
-82 -112 0
-82 -116 0
-82 -137 0
-82 -141 0
-82 -145 0
-112 -116 0
-112 -137 0
-112 -141 0
-112 -145 0
-116 -137 0
-116 -141 0
-116 -145 0
-137 -141 0
-137 -145 0
-141 -145 0
-41 36 83 113 117 138 142 146 0
-36 41 0
-83 41 0
-113 41 0
-117 41 0
-138 41 0
-142 41 0
-146 41 0
-36 -83 0
-36 -113 0
-36 -117 0
-36 -138 0
-36 -142 0
-36 -146 0
-83 -113 0
-83 -117 0
-83 -138 0
-83 -142 0
-83 -146 0
-113 -117 0
-113 -138 0
-113 -142 0
-113 -146 0
-117 -138 0
-117 -142 0
-117 -146 0
-138 -142 0
-138 -146 0
-142 -146 0
-37 40 84 114 118 139 143 147 0
-40 37 0
-84 37 0
-114 37 0
-118 37 0
-139 37 0
-143 37 0
-147 37 0
-40 -84 0
-40 -114 0
-40 -118 0
-40 -139 0
-40 -143 0
-40 -147 0
-84 -114 0
-84 -118 0
-84 -139 0
-84 -143 0
-84 -147 0
-114 -118 0
-114 -139 0
-114 -143 0
-114 -147 0
-118 -139 0
-118 -143 0
-118 -147 0
-139 -143 0
-139 -147 0
-143 -147 0
-38 42 85 115 119 140 144 148 0
-42 38 0
-85 38 0
-115 38 0
-119 38 0
-140 38 0
-144 38 0
-148 38 0
-42 -85 0
-42 -115 0
-42 -119 0
-42 -140 0
-42 -144 0
-42 -148 0
-85 -115 0
-85 -119 0
-85 -140 0
-85 -144 0
-85 -148 0
-115 -119 0
-115 -140 0
-115 -144 0
-115 -148 0
-119 -140 0
-119 -144 0
-119 -148 0
-140 -144 0
-140 -148 0
-144 -148 0
-39 43 86 116 120 141 145 149 0
-43 39 0
-86 39 0
-116 39 0
-120 39 0
-141 39 0
-145 39 0
-149 39 0
-43 -86 0
-43 -116 0
-43 -120 0
-43 -141 0
-43 -145 0
-43 -149 0
-86 -116 0
-86 -120 0
-86 -141 0
-86 -145 0
-86 -149 0
-116 -120 0
-116 -141 0
-116 -145 0
-116 -149 0
-120 -141 0
-120 -145 0
-120 -149 0
-141 -145 0
-141 -149 0
-145 -149 0
-49 44 87 117 121 142 146 0
-44 49 0
-87 49 0
-117 49 0
-121 49 0
-142 49 0
-146 49 0
-44 -87 0
-44 -117 0
-44 -121 0
-44 -142 0
-44 -146 0
-87 -117 0
-87 -121 0
-87 -142 0
-87 -146 0
-117 -121 0
-117 -142 0
-117 -146 0
-121 -142 0
-121 -146 0
-142 -146 0
-45 48 88 118 122 143 147 0
-48 45 0
-88 45 0
-118 45 0
-122 45 0
-143 45 0
-147 45 0
-48 -88 0
-48 -118 0
-48 -122 0
-48 -143 0
-48 -147 0
-88 -118 0
-88 -122 0
-88 -143 0
-88 -147 0
-118 -122 0
-118 -143 0
-118 -147 0
-122 -143 0
-122 -147 0
-143 -147 0
-46 50 89 119 123 144 148 0
-50 46 0
-89 46 0
-119 46 0
-123 46 0
-144 46 0
-148 46 0
-50 -89 0
-50 -119 0
-50 -123 0
-50 -144 0
-50 -148 0
-89 -119 0
-89 -123 0
-89 -144 0
-89 -148 0
-119 -123 0
-119 -144 0
-119 -148 0
-123 -144 0
-123 -148 0
-144 -148 0
-47 51 90 120 124 145 149 0
-51 47 0
-90 47 0
-120 47 0
-124 47 0
-145 47 0
-149 47 0
-51 -90 0
-51 -120 0
-51 -124 0
-51 -145 0
-51 -149 0
-90 -120 0
-90 -124 0
-90 -145 0
-90 -149 0
-120 -124 0
-120 -145 0
-120 -149 0
-124 -145 0
-124 -149 0
-145 -149 0
-57 52 91 121 146 0
-52 57 0
-91 57 0
-121 57 0
-146 57 0
-52 -91 0
-52 -121 0
-52 -146 0
-91 -121 0
-91 -146 0
-121 -146 0
-53 56 92 122 147 0
-56 53 0
-92 53 0
-122 53 0
-147 53 0
-56 -92 0
-56 -122 0
-56 -147 0
-92 -122 0
-92 -147 0
-122 -147 0
-54 58 93 123 148 0
-58 54 0
-93 54 0
-123 54 0
-148 54 0
-58 -93 0
-58 -123 0
-58 -148 0
-93 -123 0
-93 -148 0
-123 -148 0
-55 59 94 124 149 0
-59 55 0
-94 55 0
-124 55 0
-149 55 0
-59 -94 0
-59 -124 0
-59 -149 0
-94 -124 0
-94 -149 0
-124 -149 0
150 151 152 153 154 155 0
-150 -151 0
-150 -152 0
-150 -153 0
-150 -154 0
-150 -155 0
-151 -152 0
-151 -153 0
-151 -154 0
-151 -155 0
-152 -153 0
-152 -154 0
-152 -155 0
-153 -154 0
-153 -155 0
-154 -155 0
156 157 158 159 0
-156 -157 0
-156 -158 0
-156 -159 0
-157 -158 0
-157 -159 0
-158 -159 0
-160 150 0
-160 156 0
-150 -156 160 0
-160 164 161 162 163 0
-160 -164 -161 0
-160 -164 -162 0
-160 -164 -163 0
-165 150 0
-165 157 0
-150 -157 165 0
-165 166 0
-165 164 162 163 0
-165 -164 -162 0
-165 -164 -163 0
-167 150 0
-167 158 0
-150 -158 167 0
-167 161 0
-167 164 163 0
-167 -164 -163 0
-168 150 0
-168 159 0
-150 -159 168 0
-168 162 0
-168 164 0
-169 151 0
-169 156 0
-151 -156 169 0
-169 164 170 171 172 0
-169 -164 -170 0
-169 -164 -171 0
-169 -164 -172 0
-173 151 0
-173 157 0
-151 -157 173 0
-173 174 0
-173 164 171 172 0
-173 -164 -171 0
-173 -164 -172 0
-175 151 0
-175 158 0
-151 -158 175 0
-175 170 0
-175 164 172 0
-175 -164 -172 0
-176 151 0
-176 159 0
-151 -159 176 0
-176 171 0
-176 164 0
-177 152 0
-177 156 0
-152 -156 177 0
-177 164 178 179 180 0
-177 -164 -178 0
-177 -164 -179 0
-177 -164 -180 0
-181 152 0
-181 157 0
-152 -157 181 0
-181 182 0
-181 164 179 180 0
-181 -164 -179 0
-181 -164 -180 0
-183 152 0
-183 158 0
-152 -158 183 0
-183 178 0
-183 164 180 0
-183 -164 -180 0
-184 152 0
-184 159 0
-152 -159 184 0
-184 179 0
-184 164 0
-185 153 0
-185 156 0
-153 -156 185 0
-185 164 186 187 188 0
-185 -164 -186 0
-185 -164 -187 0
-185 -164 -188 0
-189 153 0
-189 157 0
-153 -157 189 0
-189 190 0
-189 164 187 188 0
-189 -164 -187 0
-189 -164 -188 0
-191 153 0
-191 158 0
-153 -158 191 0
-191 186 0
-191 164 188 0
-191 -164 -188 0
-192 153 0
-192 159 0
-153 -159 192 0
-192 187 0
-192 164 0
-193 154 0
-193 156 0
-154 -156 193 0
-193 164 194 195 196 0
-193 -164 -194 0
-193 -164 -195 0
-193 -164 -196 0
-197 154 0
-197 157 0
-154 -157 197 0
-197 198 0
-197 164 195 196 0
-197 -164 -195 0
-197 -164 -196 0
-199 154 0
-199 158 0
-154 -158 199 0
-199 194 0
-199 164 196 0
-199 -164 -196 0
-200 154 0
-200 159 0
-154 -159 200 0
-200 195 0
-200 164 0
-201 155 0
-201 156 0
-155 -156 201 0
-201 164 202 203 204 0
-201 -164 -202 0
-201 -164 -203 0
-201 -164 -204 0
-205 155 0
-205 157 0
-155 -157 205 0
-205 206 0
-205 164 203 204 0
-205 -164 -203 0
-205 -164 -204 0
-207 155 0
-207 158 0
-155 -158 207 0
-207 202 0
-207 164 204 0
-207 -164 -204 0
-208 155 0
-208 159 0
-155 -159 208 0
-208 203 0
-208 164 0
209 210 211 212 213 214 0
-209 -210 0
-209 -211 0
-209 -212 0
-209 -213 0
-209 -214 0
-210 -211 0
-210 -212 0
-210 -213 0
-210 -214 0
-211 -212 0
-211 -213 0
-211 -214 0
-212 -213 0
-212 -214 0
-213 -214 0
215 216 217 218 0
-215 -216 0
-215 -217 0
-215 -218 0
-216 -217 0
-216 -218 0
-217 -218 0
-219 209 0
-219 215 0
-209 -215 219 0
-219 220 161 162 163 0
-219 -220 -161 0
-219 -220 -162 0
-219 -220 -163 0
-221 209 0
-221 216 0
-209 -216 221 0
-221 166 0
-221 220 162 163 0
-221 -220 -162 0
-221 -220 -163 0
-222 209 0
-222 217 0
-209 -217 222 0
-222 161 0
-222 220 163 0
-222 -220 -163 0
-223 209 0
-223 218 0
-209 -218 223 0
-223 162 0
-223 220 0
-224 210 0
-224 215 0
-210 -215 224 0
-224 220 170 171 172 0
-224 -220 -170 0
-224 -220 -171 0
-224 -220 -172 0
-225 210 0
-225 216 0
-210 -216 225 0
-225 174 0
-225 220 171 172 0
-225 -220 -171 0
-225 -220 -172 0
-226 210 0
-226 217 0
-210 -217 226 0
-226 170 0
-226 220 172 0
-226 -220 -172 0
-227 210 0
-227 218 0
-210 -218 227 0
-227 171 0
-227 220 0
-228 211 0
-228 215 0
-211 -215 228 0
-228 220 178 179 180 0
-228 -220 -178 0
-228 -220 -179 0
-228 -220 -180 0
-229 211 0
-229 216 0
-211 -216 229 0
-229 182 0
-229 220 179 180 0
-229 -220 -179 0
-229 -220 -180 0
-230 211 0
-230 217 0
-211 -217 230 0
-230 178 0
-230 220 180 0
-230 -220 -180 0
-231 211 0
-231 218 0
-211 -218 231 0
-231 179 0
-231 220 0
-232 212 0
-232 215 0
-212 -215 232 0
-232 220 186 187 188 0
-232 -220 -186 0
-232 -220 -187 0
-232 -220 -188 0
-233 212 0
-233 216 0
-212 -216 233 0
-233 190 0
-233 220 187 188 0
-233 -220 -187 0
-233 -220 -188 0
-234 212 0
-234 217 0
-212 -217 234 0
-234 186 0
-234 220 188 0
-234 -220 -188 0
-235 212 0
-235 218 0
-212 -218 235 0
-235 187 0
-235 220 0
-236 213 0
-236 215 0
-213 -215 236 0
-236 220 194 195 196 0
-236 -220 -194 0
-236 -220 -195 0
-236 -220 -196 0
-237 213 0
-237 216 0
-213 -216 237 0
-237 198 0
-237 220 195 196 0
-237 -220 -195 0
-237 -220 -196 0
-238 213 0
-238 217 0
-213 -217 238 0
-238 194 0
-238 220 196 0
-238 -220 -196 0
-239 213 0
-239 218 0
-213 -218 239 0
-239 195 0
-239 220 0
-240 214 0
-240 215 0
-214 -215 240 0
-240 220 202 203 204 0
-240 -220 -202 0
-240 -220 -203 0
-240 -220 -204 0
-241 214 0
-241 216 0
-214 -216 241 0
-241 206 0
-241 220 203 204 0
-241 -220 -203 0
-241 -220 -204 0
-242 214 0
-242 217 0
-214 -217 242 0
-242 202 0
-242 220 204 0
-242 -220 -204 0
-243 214 0
-243 218 0
-214 -218 243 0
-243 203 0
-243 220 0
244 245 246 247 248 0
-244 -245 0
-244 -246 0
-244 -247 0
-244 -248 0
-245 -246 0
-245 -247 0
-245 -248 0
-246 -247 0
-246 -248 0
-247 -248 0
249 250 251 252 0
-249 -250 0
-249 -251 0
-249 -252 0
-250 -251 0
-250 -252 0
-251 -252 0
-253 244 0
-253 249 0
-244 -249 253 0
-253 254 161 162 163 170 171 172 0
-253 -254 -161 0
-253 -254 -162 0
-253 -254 -163 0
-253 -254 -170 0
-253 -254 -171 0
-253 -254 -172 0
-255 244 0
-255 250 0
-244 -250 255 0
-255 166 174 0
-255 254 162 163 171 172 0
-255 -254 -162 0
-255 -254 -163 0
-255 -254 -171 0
-255 -254 -172 0
-256 244 0
-256 251 0
-244 -251 256 0
-256 161 170 0
-256 254 163 172 0
-256 -254 -163 0
-256 -254 -172 0
-257 244 0
-257 252 0
-244 -252 257 0
-257 162 171 0
-257 254 0
-258 245 0
-258 249 0
-245 -249 258 0
-258 254 170 171 172 178 179 180 0
-258 -254 -170 0
-258 -254 -171 0
-258 -254 -172 0
-258 -254 -178 0
-258 -254 -179 0
-258 -254 -180 0
-259 245 0
-259 250 0
-245 -250 259 0
-259 174 182 0
-259 254 171 172 179 180 0
-259 -254 -171 0
-259 -254 -172 0
-259 -254 -179 0
-259 -254 -180 0
-260 245 0
-260 251 0
-245 -251 260 0
-260 170 178 0
-260 254 172 180 0
-260 -254 -172 0
-260 -254 -180 0
-261 245 0
-261 252 0
-245 -252 261 0
-261 171 179 0
-261 254 0
-262 246 0
-262 249 0
-246 -249 262 0
-262 254 178 179 180 186 187 188 0
-262 -254 -178 0
-262 -254 -179 0
-262 -254 -180 0
-262 -254 -186 0
-262 -254 -187 0
-262 -254 -188 0
-263 246 0
-263 250 0
-246 -250 263 0
-263 182 190 0
-263 254 179 180 187 188 0
-263 -254 -179 0
-263 -254 -180 0
-263 -254 -187 0
-263 -254 -188 0
-264 246 0
-264 251 0
-246 -251 264 0
-264 178 186 0
-264 254 180 188 0
-264 -254 -180 0
-264 -254 -188 0
-265 246 0
-265 252 0
-246 -252 265 0
-265 179 187 0
-265 254 0
-266 247 0
-266 249 0
-247 -249 266 0
-266 254 186 187 188 194 195 196 0
-266 -254 -186 0
-266 -254 -187 0
-266 -254 -188 0
-266 -254 -194 0
-266 -254 -195 0
-266 -254 -196 0
-267 247 0
-267 250 0
-247 -250 267 0
-267 190 198 0
-267 254 187 188 195 196 0
-267 -254 -187 0
-267 -254 -188 0
-267 -254 -195 0
-267 -254 -196 0
-268 247 0
-268 251 0
-247 -251 268 0
-268 186 194 0
-268 254 188 196 0
-268 -254 -188 0
-268 -254 -196 0
-269 247 0
-269 252 0
-247 -252 269 0
-269 187 195 0
-269 254 0
-270 248 0
-270 249 0
-248 -249 270 0
-270 254 194 195 196 202 203 204 0
-270 -254 -194 0
-270 -254 -195 0
-270 -254 -196 0
-270 -254 -202 0
-270 -254 -203 0
-270 -254 -204 0
-271 248 0
-271 250 0
-248 -250 271 0
-271 198 206 0
-271 254 195 196 203 204 0
-271 -254 -195 0
-271 -254 -196 0
-271 -254 -203 0
-271 -254 -204 0
-272 248 0
-272 251 0
-248 -251 272 0
-272 194 202 0
-272 254 196 204 0
-272 -254 -196 0
-272 -254 -204 0
-273 248 0
-273 252 0
-248 -252 273 0
-273 195 203 0
-273 254 0
274 275 276 277 0
-274 -275 0
-274 -276 0
-274 -277 0
-275 -276 0
-275 -277 0
-276 -277 0
278 279 280 281 0
-278 -279 0
-278 -280 0
-278 -281 0
-279 -280 0
-279 -281 0
-280 -281 0
-282 274 0
-282 278 0
-274 -278 282 0
-282 283 161 162 163 170 171 172 178 179 180 0
-282 -283 -161 0
-282 -283 -162 0
-282 -283 -163 0
-282 -283 -170 0
-282 -283 -171 0
-282 -283 -172 0
-282 -283 -178 0
-282 -283 -179 0
-282 -283 -180 0
-284 274 0
-284 279 0
-274 -279 284 0
-284 166 174 0
-284 166 182 0
-284 174 182 0
-284 283 162 163 171 172 179 180 0
-284 -283 -162 0
-284 -283 -163 0
-284 -283 -171 0
-284 -283 -172 0
-284 -283 -179 0
-284 -283 -180 0
-285 274 0
-285 280 0
-274 -280 285 0
-285 161 170 0
-285 161 178 0
-285 170 178 0
-285 283 163 172 180 0
-285 -283 -163 0
-285 -283 -172 0
-285 -283 -180 0
-286 274 0
-286 281 0
-274 -281 286 0
-286 162 171 0
-286 162 179 0
-286 171 179 0
-286 283 0
-287 275 0
-287 278 0
-275 -278 287 0
-287 283 170 171 172 178 179 180 186 187 188 0
-287 -283 -170 0
-287 -283 -171 0
-287 -283 -172 0
-287 -283 -178 0
-287 -283 -179 0
-287 -283 -180 0
-287 -283 -186 0
-287 -283 -187 0
-287 -283 -188 0
-288 275 0
-288 279 0
-275 -279 288 0
-288 174 182 0
-288 174 190 0
-288 182 190 0
-288 283 171 172 179 180 187 188 0
-288 -283 -171 0
-288 -283 -172 0
-288 -283 -179 0
-288 -283 -180 0
-288 -283 -187 0
-288 -283 -188 0
-289 275 0
-289 280 0
-275 -280 289 0
-289 170 178 0
-289 170 186 0
-289 178 186 0
-289 283 172 180 188 0
-289 -283 -172 0
-289 -283 -180 0
-289 -283 -188 0
-290 275 0
-290 281 0
-275 -281 290 0
-290 171 179 0
-290 171 187 0
-290 179 187 0
-290 283 0
-291 276 0
-291 278 0
-276 -278 291 0
-291 283 178 179 180 186 187 188 194 195 196 0
-291 -283 -178 0
-291 -283 -179 0
-291 -283 -180 0
-291 -283 -186 0
-291 -283 -187 0
-291 -283 -188 0
-291 -283 -194 0
-291 -283 -195 0
-291 -283 -196 0
-292 276 0
-292 279 0
-276 -279 292 0
-292 182 190 0
-292 182 198 0
-292 190 198 0
-292 283 179 180 187 188 195 196 0
-292 -283 -179 0
-292 -283 -180 0
-292 -283 -187 0
-292 -283 -188 0
-292 -283 -195 0
-292 -283 -196 0
-293 276 0
-293 280 0
-276 -280 293 0
-293 178 186 0
-293 178 194 0
-293 186 194 0
-293 283 180 188 196 0
-293 -283 -180 0
-293 -283 -188 0
-293 -283 -196 0
-294 276 0
-294 281 0
-276 -281 294 0
-294 179 187 0
-294 179 195 0
-294 187 195 0
-294 283 0
-295 277 0
-295 278 0
-277 -278 295 0
-295 283 186 187 188 194 195 196 202 203 204 0
-295 -283 -186 0
-295 -283 -187 0
-295 -283 -188 0
-295 -283 -194 0
-295 -283 -195 0
-295 -283 -196 0
-295 -283 -202 0
-295 -283 -203 0
-295 -283 -204 0
-296 277 0
-296 279 0
-277 -279 296 0
-296 190 198 0
-296 190 206 0
-296 198 206 0
-296 283 187 188 195 196 203 204 0
-296 -283 -187 0
-296 -283 -188 0
-296 -283 -195 0
-296 -283 -196 0
-296 -283 -203 0
-296 -283 -204 0
-297 277 0
-297 280 0
-277 -280 297 0
-297 186 194 0
-297 186 202 0
-297 194 202 0
-297 283 188 196 204 0
-297 -283 -188 0
-297 -283 -196 0
-297 -283 -204 0
-298 277 0
-298 281 0
-277 -281 298 0
-298 187 195 0
-298 187 203 0
-298 195 203 0
-298 283 0
-166 160 219 253 282 0
-160 166 0
-219 166 0
-253 166 0
-282 166 0
-160 -219 0
-160 -253 0
-160 -282 0
-219 -253 0
-219 -282 0
-253 -282 0
-161 165 221 255 284 0
-165 161 0
-221 161 0
-255 161 0
-284 161 0
-165 -221 0
-165 -255 0
-165 -284 0
-221 -255 0
-221 -284 0
-255 -284 0
-162 167 222 256 285 0
-167 162 0
-222 162 0
-256 162 0
-285 162 0
-167 -222 0
-167 -256 0
-167 -285 0
-222 -256 0
-222 -285 0
-256 -285 0
-163 168 223 257 286 0
-168 163 0
-223 163 0
-257 163 0
-286 163 0
-168 -223 0
-168 -257 0
-168 -286 0
-223 -257 0
-223 -286 0
-257 -286 0
-174 169 224 253 258 282 287 0
-169 174 0
-224 174 0
-253 174 0
-258 174 0
-282 174 0
-287 174 0
-169 -224 0
-169 -253 0
-169 -258 0
-169 -282 0
-169 -287 0
-224 -253 0
-224 -258 0
-224 -282 0
-224 -287 0
-253 -258 0
-253 -282 0
-253 -287 0
-258 -282 0
-258 -287 0
-282 -287 0
-170 173 225 255 259 284 288 0
-173 170 0
-225 170 0
-255 170 0
-259 170 0
-284 170 0
-288 170 0
-173 -225 0
-173 -255 0
-173 -259 0
-173 -284 0
-173 -288 0
-225 -255 0
-225 -259 0
-225 -284 0
-225 -288 0
-255 -259 0
-255 -284 0
-255 -288 0
-259 -284 0
-259 -288 0
-284 -288 0
-171 175 226 256 260 285 289 0
-175 171 0
-226 171 0
-256 171 0
-260 171 0
-285 171 0
-289 171 0
-175 -226 0
-175 -256 0
-175 -260 0
-175 -285 0
-175 -289 0
-226 -256 0
-226 -260 0
-226 -285 0
-226 -289 0
-256 -260 0
-256 -285 0
-256 -289 0
-260 -285 0
-260 -289 0
-285 -289 0
-172 176 227 257 261 286 290 0
-176 172 0
-227 172 0
-257 172 0
-261 172 0
-286 172 0
-290 172 0
-176 -227 0
-176 -257 0
-176 -261 0
-176 -286 0
-176 -290 0
-227 -257 0
-227 -261 0
-227 -286 0
-227 -290 0
-257 -261 0
-257 -286 0
-257 -290 0
-261 -286 0
-261 -290 0
-286 -290 0
-182 177 228 258 262 282 287 291 0
-177 182 0
-228 182 0
-258 182 0
-262 182 0
-282 182 0
-287 182 0
-291 182 0
-177 -228 0
-177 -258 0
-177 -262 0
-177 -282 0
-177 -287 0
-177 -291 0
-228 -258 0
-228 -262 0
-228 -282 0
-228 -287 0
-228 -291 0
-258 -262 0
-258 -282 0
-258 -287 0
-258 -291 0
-262 -282 0
-262 -287 0
-262 -291 0
-282 -287 0
-282 -291 0
-287 -291 0
-178 181 229 259 263 284 288 292 0
-181 178 0
-229 178 0
-259 178 0
-263 178 0
-284 178 0
-288 178 0
-292 178 0
-181 -229 0
-181 -259 0
-181 -263 0
-181 -284 0
-181 -288 0
-181 -292 0
-229 -259 0
-229 -263 0
-229 -284 0
-229 -288 0
-229 -292 0
-259 -263 0
-259 -284 0
-259 -288 0
-259 -292 0
-263 -284 0
-263 -288 0
-263 -292 0
-284 -288 0
-284 -292 0
-288 -292 0
-179 183 230 260 264 285 289 293 0
-183 179 0
-230 179 0
-260 179 0
-264 179 0
-285 179 0
-289 179 0
-293 179 0
-183 -230 0
-183 -260 0
-183 -264 0
-183 -285 0
-183 -289 0
-183 -293 0
-230 -260 0
-230 -264 0
-230 -285 0
-230 -289 0
-230 -293 0
-260 -264 0
-260 -285 0
-260 -289 0
-260 -293 0
-264 -285 0
-264 -289 0
-264 -293 0
-285 -289 0
-285 -293 0
-289 -293 0
-180 184 231 261 265 286 290 294 0
-184 180 0
-231 180 0
-261 180 0
-265 180 0
-286 180 0
-290 180 0
-294 180 0
-184 -231 0
-184 -261 0
-184 -265 0
-184 -286 0
-184 -290 0
-184 -294 0
-231 -261 0
-231 -265 0
-231 -286 0
-231 -290 0
-231 -294 0
-261 -265 0
-261 -286 0
-261 -290 0
-261 -294 0
-265 -286 0
-265 -290 0
-265 -294 0
-286 -290 0
-286 -294 0
-290 -294 0
-190 185 232 262 266 287 291 295 0
-185 190 0
-232 190 0
-262 190 0
-266 190 0
-287 190 0
-291 190 0
-295 190 0
-185 -232 0
-185 -262 0
-185 -266 0
-185 -287 0
-185 -291 0
-185 -295 0
-232 -262 0
-232 -266 0
-232 -287 0
-232 -291 0
-232 -295 0
-262 -266 0
-262 -287 0
-262 -291 0
-262 -295 0
-266 -287 0
-266 -291 0
-266 -295 0
-287 -291 0
-287 -295 0
-291 -295 0
-186 189 233 263 267 288 292 296 0
-189 186 0
-233 186 0
-263 186 0
-267 186 0
-288 186 0
-292 186 0
-296 186 0
-189 -233 0
-189 -263 0
-189 -267 0
-189 -288 0
-189 -292 0
-189 -296 0
-233 -263 0
-233 -267 0
-233 -288 0
-233 -292 0
-233 -296 0
-263 -267 0
-263 -288 0
-263 -292 0
-263 -296 0
-267 -288 0
-267 -292 0
-267 -296 0
-288 -292 0
-288 -296 0
-292 -296 0
-187 191 234 264 268 289 293 297 0
-191 187 0
-234 187 0
-264 187 0
-268 187 0
-289 187 0
-293 187 0
-297 187 0
-191 -234 0
-191 -264 0
-191 -268 0
-191 -289 0
-191 -293 0
-191 -297 0
-234 -264 0
-234 -268 0
-234 -289 0
-234 -293 0
-234 -297 0
-264 -268 0
-264 -289 0
-264 -293 0
-264 -297 0
-268 -289 0
-268 -293 0
-268 -297 0
-289 -293 0
-289 -297 0
-293 -297 0
-188 192 235 265 269 290 294 298 0
-192 188 0
-235 188 0
-265 188 0
-269 188 0
-290 188 0
-294 188 0
-298 188 0
-192 -235 0
-192 -265 0
-192 -269 0
-192 -290 0
-192 -294 0
-192 -298 0
-235 -265 0
-235 -269 0
-235 -290 0
-235 -294 0
-235 -298 0
-265 -269 0
-265 -290 0
-265 -294 0
-265 -298 0
-269 -290 0
-269 -294 0
-269 -298 0
-290 -294 0
-290 -298 0
-294 -298 0
-198 193 236 266 270 291 295 0
-193 198 0
-236 198 0
-266 198 0
-270 198 0
-291 198 0
-295 198 0
-193 -236 0
-193 -266 0
-193 -270 0
-193 -291 0
-193 -295 0
-236 -266 0
-236 -270 0
-236 -291 0
-236 -295 0
-266 -270 0
-266 -291 0
-266 -295 0
-270 -291 0
-270 -295 0
-291 -295 0
-194 197 237 267 271 292 296 0
-197 194 0
-237 194 0
-267 194 0
-271 194 0
-292 194 0
-296 194 0
-197 -237 0
-197 -267 0
-197 -271 0
-197 -292 0
-197 -296 0
-237 -267 0
-237 -271 0
-237 -292 0
-237 -296 0
-267 -271 0
-267 -292 0
-267 -296 0
-271 -292 0
-271 -296 0
-292 -296 0
-195 199 238 268 272 293 297 0
-199 195 0
-238 195 0
-268 195 0
-272 195 0
-293 195 0
-297 195 0
-199 -238 0
-199 -268 0
-199 -272 0
-199 -293 0
-199 -297 0
-238 -268 0
-238 -272 0
-238 -293 0
-238 -297 0
-268 -272 0
-268 -293 0
-268 -297 0
-272 -293 0
-272 -297 0
-293 -297 0
-196 200 239 269 273 294 298 0
-200 196 0
-239 196 0
-269 196 0
-273 196 0
-294 196 0
-298 196 0
-200 -239 0
-200 -269 0
-200 -273 0
-200 -294 0
-200 -298 0
-239 -269 0
-239 -273 0
-239 -294 0
-239 -298 0
-269 -273 0
-269 -294 0
-269 -298 0
-273 -294 0
-273 -298 0
-294 -298 0
-206 201 240 270 295 0
-201 206 0
-240 206 0
-270 206 0
-295 206 0
-201 -240 0
-201 -270 0
-201 -295 0
-240 -270 0
-240 -295 0
-270 -295 0
-202 205 241 271 296 0
-205 202 0
-241 202 0
-271 202 0
-296 202 0
-205 -241 0
-205 -271 0
-205 -296 0
-241 -271 0
-241 -296 0
-271 -296 0
-203 207 242 272 297 0
-207 203 0
-242 203 0
-272 203 0
-297 203 0
-207 -242 0
-207 -272 0
-207 -297 0
-242 -272 0
-242 -297 0
-272 -297 0
-204 208 243 273 298 0
-208 204 0
-243 204 0
-273 204 0
-298 204 0
-208 -243 0
-208 -273 0
-208 -298 0
-243 -273 0
-243 -298 0
-273 -298 0
299 300 301 302 303 304 0
-299 -300 0
-299 -301 0
-299 -302 0
-299 -303 0
-299 -304 0
-300 -301 0
-300 -302 0
-300 -303 0
-300 -304 0
-301 -302 0
-301 -303 0
-301 -304 0
-302 -303 0
-302 -304 0
-303 -304 0
305 306 307 308 0
-305 -306 0
-305 -307 0
-305 -308 0
-306 -307 0
-306 -308 0
-307 -308 0
-309 299 0
-309 305 0
-299 -305 309 0
-309 313 310 311 312 0
-309 -313 -310 0
-309 -313 -311 0
-309 -313 -312 0
-314 299 0
-314 306 0
-299 -306 314 0
-314 315 0
-314 313 311 312 0
-314 -313 -311 0
-314 -313 -312 0
-316 299 0
-316 307 0
-299 -307 316 0
-316 310 0
-316 313 312 0
-316 -313 -312 0
-317 299 0
-317 308 0
-299 -308 317 0
-317 311 0
-317 313 0
-318 300 0
-318 305 0
-300 -305 318 0
-318 313 319 320 321 0
-318 -313 -319 0
-318 -313 -320 0
-318 -313 -321 0
-322 300 0
-322 306 0
-300 -306 322 0
-322 323 0
-322 313 320 321 0
-322 -313 -320 0
-322 -313 -321 0
-324 300 0
-324 307 0
-300 -307 324 0
-324 319 0
-324 313 321 0
-324 -313 -321 0
-325 300 0
-325 308 0
-300 -308 325 0
-325 320 0
-325 313 0
-326 301 0
-326 305 0
-301 -305 326 0
-326 313 327 328 329 0
-326 -313 -327 0
-326 -313 -328 0
-326 -313 -329 0
-330 301 0
-330 306 0
-301 -306 330 0
-330 331 0
-330 313 328 329 0
-330 -313 -328 0
-330 -313 -329 0
-332 301 0
-332 307 0
-301 -307 332 0
-332 327 0
-332 313 329 0
-332 -313 -329 0
-333 301 0
-333 308 0
-301 -308 333 0
-333 328 0
-333 313 0
-334 302 0
-334 305 0
-302 -305 334 0
-334 313 335 336 337 0
-334 -313 -335 0
-334 -313 -336 0
-334 -313 -337 0
-338 302 0
-338 306 0
-302 -306 338 0
-338 339 0
-338 313 336 337 0
-338 -313 -336 0
-338 -313 -337 0
-340 302 0
-340 307 0
-302 -307 340 0
-340 335 0
-340 313 337 0
-340 -313 -337 0
-341 302 0
-341 308 0
-302 -308 341 0
-341 336 0
-341 313 0
-342 303 0
-342 305 0
-303 -305 342 0
-342 313 343 344 345 0
-342 -313 -343 0
-342 -313 -344 0
-342 -313 -345 0
-346 303 0
-346 306 0
-303 -306 346 0
-346 347 0
-346 313 344 345 0
-346 -313 -344 0
-346 -313 -345 0
-348 303 0
-348 307 0
-303 -307 348 0
-348 343 0
-348 313 345 0
-348 -313 -345 0
-349 303 0
-349 308 0
-303 -308 349 0
-349 344 0
-349 313 0
-350 304 0
-350 305 0
-304 -305 350 0
-350 313 351 352 353 0
-350 -313 -351 0
-350 -313 -352 0
-350 -313 -353 0
-354 304 0
-354 306 0
-304 -306 354 0
-354 355 0
-354 313 352 353 0
-354 -313 -352 0
-354 -313 -353 0
-356 304 0
-356 307 0
-304 -307 356 0
-356 351 0
-356 313 353 0
-356 -313 -353 0
-357 304 0
-357 308 0
-304 -308 357 0
-357 352 0
-357 313 0
358 359 360 361 362 363 0
-358 -359 0
-358 -360 0
-358 -361 0
-358 -362 0
-358 -363 0
-359 -360 0
-359 -361 0
-359 -362 0
-359 -363 0
-360 -361 0
-360 -362 0
-360 -363 0
-361 -362 0
-361 -363 0
-362 -363 0
364 365 366 367 0
-364 -365 0
-364 -366 0
-364 -367 0
-365 -366 0
-365 -367 0
-366 -367 0
-368 358 0
-368 364 0
-358 -364 368 0
-368 369 310 311 312 0
-368 -369 -310 0
-368 -369 -311 0
-368 -369 -312 0
-370 358 0
-370 365 0
-358 -365 370 0
-370 315 0
-370 369 311 312 0
-370 -369 -311 0
-370 -369 -312 0
-371 358 0
-371 366 0
-358 -366 371 0
-371 310 0
-371 369 312 0
-371 -369 -312 0
-372 358 0
-372 367 0
-358 -367 372 0
-372 311 0
-372 369 0
-373 359 0
-373 364 0
-359 -364 373 0
-373 369 319 320 321 0
-373 -369 -319 0
-373 -369 -320 0
-373 -369 -321 0
-374 359 0
-374 365 0
-359 -365 374 0
-374 323 0
-374 369 320 321 0
-374 -369 -320 0
-374 -369 -321 0
-375 359 0
-375 366 0
-359 -366 375 0
-375 319 0
-375 369 321 0
-375 -369 -321 0
-376 359 0
-376 367 0
-359 -367 376 0
-376 320 0
-376 369 0
-377 360 0
-377 364 0
-360 -364 377 0
-377 369 327 328 329 0
-377 -369 -327 0
-377 -369 -328 0
-377 -369 -329 0
-378 360 0
-378 365 0
-360 -365 378 0
-378 331 0
-378 369 328 329 0
-378 -369 -328 0
-378 -369 -329 0
-379 360 0
-379 366 0
-360 -366 379 0
-379 327 0
-379 369 329 0
-379 -369 -329 0
-380 360 0
-380 367 0
-360 -367 380 0
-380 328 0
-380 369 0
-381 361 0
-381 364 0
-361 -364 381 0
-381 369 335 336 337 0
-381 -369 -335 0
-381 -369 -336 0
-381 -369 -337 0
-382 361 0
-382 365 0
-361 -365 382 0
-382 339 0
-382 369 336 337 0
-382 -369 -336 0
-382 -369 -337 0
-383 361 0
-383 366 0
-361 -366 383 0
-383 335 0
-383 369 337 0
-383 -369 -337 0
-384 361 0
-384 367 0
-361 -367 384 0
-384 336 0
-384 369 0
-385 362 0
-385 364 0
-362 -364 385 0
-385 369 343 344 345 0
-385 -369 -343 0
-385 -369 -344 0
-385 -369 -345 0
-386 362 0
-386 365 0
-362 -365 386 0
-386 347 0
-386 369 344 345 0
-386 -369 -344 0
-386 -369 -345 0
-387 362 0
-387 366 0
-362 -366 387 0
-387 343 0
-387 369 345 0
-387 -369 -345 0
-388 362 0
-388 367 0
-362 -367 388 0
-388 344 0
-388 369 0
-389 363 0
-389 364 0
-363 -364 389 0
-389 369 351 352 353 0
-389 -369 -351 0
-389 -369 -352 0
-389 -369 -353 0
-390 363 0
-390 365 0
-363 -365 390 0
-390 355 0
-390 369 352 353 0
-390 -369 -352 0
-390 -369 -353 0
-391 363 0
-391 366 0
-363 -366 391 0
-391 351 0
-391 369 353 0
-391 -369 -353 0
-392 363 0
-392 367 0
-363 -367 392 0
-392 352 0
-392 369 0
393 394 395 396 397 0
-393 -394 0
-393 -395 0
-393 -396 0
-393 -397 0
-394 -395 0
-394 -396 0
-394 -397 0
-395 -396 0
-395 -397 0
-396 -397 0
398 399 400 401 0
-398 -399 0
-398 -400 0
-398 -401 0
-399 -400 0
-399 -401 0
-400 -401 0
-402 393 0
-402 398 0
-393 -398 402 0
-402 403 310 311 312 319 320 321 0
-402 -403 -310 0
-402 -403 -311 0
-402 -403 -312 0
-402 -403 -319 0
-402 -403 -320 0
-402 -403 -321 0
-404 393 0
-404 399 0
-393 -399 404 0
-404 315 323 0
-404 403 311 312 320 321 0
-404 -403 -311 0
-404 -403 -312 0
-404 -403 -320 0
-404 -403 -321 0
-405 393 0
-405 400 0
-393 -400 405 0
-405 310 319 0
-405 403 312 321 0
-405 -403 -312 0
-405 -403 -321 0
-406 393 0
-406 401 0
-393 -401 406 0
-406 311 320 0
-406 403 0
-407 394 0
-407 398 0
-394 -398 407 0
-407 403 319 320 321 327 328 329 0
-407 -403 -319 0
-407 -403 -320 0
-407 -403 -321 0
-407 -403 -327 0
-407 -403 -328 0
-407 -403 -329 0
-408 394 0
-408 399 0
-394 -399 408 0
-408 323 331 0
-408 403 320 321 328 329 0
-408 -403 -320 0
-408 -403 -321 0
-408 -403 -328 0
-408 -403 -329 0
-409 394 0
-409 400 0
-394 -400 409 0
-409 319 327 0
-409 403 321 329 0
-409 -403 -321 0
-409 -403 -329 0
-410 394 0
-410 401 0
-394 -401 410 0
-410 320 328 0
-410 403 0
-411 395 0
-411 398 0
-395 -398 411 0
-411 403 327 328 329 335 336 337 0
-411 -403 -327 0
-411 -403 -328 0
-411 -403 -329 0
-411 -403 -335 0
-411 -403 -336 0
-411 -403 -337 0
-412 395 0
-412 399 0
-395 -399 412 0
-412 331 339 0
-412 403 328 329 336 337 0
-412 -403 -328 0
-412 -403 -329 0
-412 -403 -336 0
-412 -403 -337 0
-413 395 0
-413 400 0
-395 -400 413 0
-413 327 335 0
-413 403 329 337 0
-413 -403 -329 0
-413 -403 -337 0
-414 395 0
-414 401 0
-395 -401 414 0
-414 328 336 0
-414 403 0
-415 396 0
-415 398 0
-396 -398 415 0
-415 403 335 336 337 343 344 345 0
-415 -403 -335 0
-415 -403 -336 0
-415 -403 -337 0
-415 -403 -343 0
-415 -403 -344 0
-415 -403 -345 0
-416 396 0
-416 399 0
-396 -399 416 0
-416 339 347 0
-416 403 336 337 344 345 0
-416 -403 -336 0
-416 -403 -337 0
-416 -403 -344 0
-416 -403 -345 0
-417 396 0
-417 400 0
-396 -400 417 0
-417 335 343 0
-417 403 337 345 0
-417 -403 -337 0
-417 -403 -345 0
-418 396 0
-418 401 0
-396 -401 418 0
-418 336 344 0
-418 403 0
-419 397 0
-419 398 0
-397 -398 419 0
-419 403 343 344 345 351 352 353 0
-419 -403 -343 0
-419 -403 -344 0
-419 -403 -345 0
-419 -403 -351 0
-419 -403 -352 0
-419 -403 -353 0
-420 397 0
-420 399 0
-397 -399 420 0
-420 347 355 0
-420 403 344 345 352 353 0
-420 -403 -344 0
-420 -403 -345 0
-420 -403 -352 0
-420 -403 -353 0
-421 397 0
-421 400 0
-397 -400 421 0
-421 343 351 0
-421 403 345 353 0
-421 -403 -345 0
-421 -403 -353 0
-422 397 0
-422 401 0
-397 -401 422 0
-422 344 352 0
-422 403 0
423 424 425 426 0
-423 -424 0
-423 -425 0
-423 -426 0
-424 -425 0
-424 -426 0
-425 -426 0
427 428 429 430 0
-427 -428 0
-427 -429 0
-427 -430 0
-428 -429 0
-428 -430 0
-429 -430 0
-431 423 0
-431 427 0
-423 -427 431 0
-431 432 310 311 312 319 320 321 327 328 329 0
-431 -432 -310 0
-431 -432 -311 0
-431 -432 -312 0
-431 -432 -319 0
-431 -432 -320 0
-431 -432 -321 0
-431 -432 -327 0
-431 -432 -328 0
-431 -432 -329 0
-433 423 0
-433 428 0
-423 -428 433 0
-433 315 323 0
-433 315 331 0
-433 323 331 0
-433 432 311 312 320 321 328 329 0
-433 -432 -311 0
-433 -432 -312 0
-433 -432 -320 0
-433 -432 -321 0
-433 -432 -328 0
-433 -432 -329 0
-434 423 0
-434 429 0
-423 -429 434 0
-434 310 319 0
-434 310 327 0
-434 319 327 0
-434 432 312 321 329 0
-434 -432 -312 0
-434 -432 -321 0
-434 -432 -329 0
-435 423 0
-435 430 0
-423 -430 435 0
-435 311 320 0
-435 311 328 0
-435 320 328 0
-435 432 0
-436 424 0
-436 427 0
-424 -427 436 0
-436 432 319 320 321 327 328 329 335 336 337 0
-436 -432 -319 0
-436 -432 -320 0
-436 -432 -321 0
-436 -432 -327 0
-436 -432 -328 0
-436 -432 -329 0
-436 -432 -335 0
-436 -432 -336 0
-436 -432 -337 0
-437 424 0
-437 428 0
-424 -428 437 0
-437 323 331 0
-437 323 339 0
-437 331 339 0
-437 432 320 321 328 329 336 337 0
-437 -432 -320 0
-437 -432 -321 0
-437 -432 -328 0
-437 -432 -329 0
-437 -432 -336 0
-437 -432 -337 0
-438 424 0
-438 429 0
-424 -429 438 0
-438 319 327 0
-438 319 335 0
-438 327 335 0
-438 432 321 329 337 0
-438 -432 -321 0
-438 -432 -329 0
-438 -432 -337 0
-439 424 0
-439 430 0
-424 -430 439 0
-439 320 328 0
-439 320 336 0
-439 328 336 0
-439 432 0
-440 425 0
-440 427 0
-425 -427 440 0
-440 432 327 328 329 335 336 337 343 344 345 0
-440 -432 -327 0
-440 -432 -328 0
-440 -432 -329 0
-440 -432 -335 0
-440 -432 -336 0
-440 -432 -337 0
-440 -432 -343 0
-440 -432 -344 0
-440 -432 -345 0
-441 425 0
-441 428 0
-425 -428 441 0
-441 331 339 0
-441 331 347 0
-441 339 347 0
-441 432 328 329 336 337 344 345 0
-441 -432 -328 0
-441 -432 -329 0
-441 -432 -336 0
-441 -432 -337 0
-441 -432 -344 0
-441 -432 -345 0
-442 425 0
-442 429 0
-425 -429 442 0
-442 327 335 0
-442 327 343 0
-442 335 343 0
-442 432 329 337 345 0
-442 -432 -329 0
-442 -432 -337 0
-442 -432 -345 0
-443 425 0
-443 430 0
-425 -430 443 0
-443 328 336 0
-443 328 344 0
-443 336 344 0
-443 432 0
-444 426 0
-444 427 0
-426 -427 444 0
-444 432 335 336 337 343 344 345 351 352 353 0
-444 -432 -335 0
-444 -432 -336 0
-444 -432 -337 0
-444 -432 -343 0
-444 -432 -344 0
-444 -432 -345 0
-444 -432 -351 0
-444 -432 -352 0
-444 -432 -353 0
-445 426 0
-445 428 0
-426 -428 445 0
-445 339 347 0
-445 339 355 0
-445 347 355 0
-445 432 336 337 344 345 352 353 0
-445 -432 -336 0
-445 -432 -337 0
-445 -432 -344 0
-445 -432 -345 0
-445 -432 -352 0
-445 -432 -353 0
-446 426 0
-446 429 0
-426 -429 446 0
-446 335 343 0
-446 335 351 0
-446 343 351 0
-446 432 337 345 353 0
-446 -432 -337 0
-446 -432 -345 0
-446 -432 -353 0
-447 426 0
-447 430 0
-426 -430 447 0
-447 336 344 0
-447 336 352 0
-447 344 352 0
-447 432 0
-315 309 368 402 431 0
-309 315 0
-368 315 0
-402 315 0
-431 315 0
-309 -368 0
-309 -402 0
-309 -431 0
-368 -402 0
-368 -431 0
-402 -431 0
-310 314 370 404 433 0
-314 310 0
-370 310 0
-404 310 0
-433 310 0
-314 -370 0
-314 -404 0
-314 -433 0
-370 -404 0
-370 -433 0
-404 -433 0
-311 316 371 405 434 0
-316 311 0
-371 311 0
-405 311 0
-434 311 0
-316 -371 0
-316 -405 0
-316 -434 0
-371 -405 0
-371 -434 0
-405 -434 0
-312 317 372 406 435 0
-317 312 0
-372 312 0
-406 312 0
-435 312 0
-317 -372 0
-317 -406 0
-317 -435 0
-372 -406 0
-372 -435 0
-406 -435 0
-323 318 373 402 407 431 436 0
-318 323 0
-373 323 0
-402 323 0
-407 323 0
-431 323 0
-436 323 0
-318 -373 0
-318 -402 0
-318 -407 0
-318 -431 0
-318 -436 0
-373 -402 0
-373 -407 0
-373 -431 0
-373 -436 0
-402 -407 0
-402 -431 0
-402 -436 0
-407 -431 0
-407 -436 0
-431 -436 0
-319 322 374 404 408 433 437 0
-322 319 0
-374 319 0
-404 319 0
-408 319 0
-433 319 0
-437 319 0
-322 -374 0
-322 -404 0
-322 -408 0
-322 -433 0
-322 -437 0
-374 -404 0
-374 -408 0
-374 -433 0
-374 -437 0
-404 -408 0
-404 -433 0
-404 -437 0
-408 -433 0
-408 -437 0
-433 -437 0
-320 324 375 405 409 434 438 0
-324 320 0
-375 320 0
-405 320 0
-409 320 0
-434 320 0
-438 320 0
-324 -375 0
-324 -405 0
-324 -409 0
-324 -434 0
-324 -438 0
-375 -405 0
-375 -409 0
-375 -434 0
-375 -438 0
-405 -409 0
-405 -434 0
-405 -438 0
-409 -434 0
-409 -438 0
-434 -438 0
-321 325 376 406 410 435 439 0
-325 321 0
-376 321 0
-406 321 0
-410 321 0
-435 321 0
-439 321 0
-325 -376 0
-325 -406 0
-325 -410 0
-325 -435 0
-325 -439 0
-376 -406 0
-376 -410 0
-376 -435 0
-376 -439 0
-406 -410 0
-406 -435 0
-406 -439 0
-410 -435 0
-410 -439 0
-435 -439 0
-331 326 377 407 411 431 436 440 0
-326 331 0
-377 331 0
-407 331 0
-411 331 0
-431 331 0
-436 331 0
-440 331 0
-326 -377 0
-326 -407 0
-326 -411 0
-326 -431 0
-326 -436 0
-326 -440 0
-377 -407 0
-377 -411 0
-377 -431 0
-377 -436 0
-377 -440 0
-407 -411 0
-407 -431 0
-407 -436 0
-407 -440 0
-411 -431 0
-411 -436 0
-411 -440 0
-431 -436 0
-431 -440 0
-436 -440 0
-327 330 378 408 412 433 437 441 0
-330 327 0
-378 327 0
-408 327 0
-412 327 0
-433 327 0
-437 327 0
-441 327 0
-330 -378 0
-330 -408 0
-330 -412 0
-330 -433 0
-330 -437 0
-330 -441 0
-378 -408 0
-378 -412 0
-378 -433 0
-378 -437 0
-378 -441 0
-408 -412 0
-408 -433 0
-408 -437 0
-408 -441 0
-412 -433 0
-412 -437 0
-412 -441 0
-433 -437 0
-433 -441 0
-437 -441 0
-328 332 379 409 413 434 438 442 0
-332 328 0
-379 328 0
-409 328 0
-413 328 0
-434 328 0
-438 328 0
-442 328 0
-332 -379 0
-332 -409 0
-332 -413 0
-332 -434 0
-332 -438 0
-332 -442 0
-379 -409 0
-379 -413 0
-379 -434 0
-379 -438 0
-379 -442 0
-409 -413 0
-409 -434 0
-409 -438 0
-409 -442 0
-413 -434 0
-413 -438 0
-413 -442 0
-434 -438 0
-434 -442 0
-438 -442 0
-329 333 380 410 414 435 439 443 0
-333 329 0
-380 329 0
-410 329 0
-414 329 0
-435 329 0
-439 329 0
-443 329 0
-333 -380 0
-333 -410 0
-333 -414 0
-333 -435 0
-333 -439 0
-333 -443 0
-380 -410 0
-380 -414 0
-380 -435 0
-380 -439 0
-380 -443 0
-410 -414 0
-410 -435 0
-410 -439 0
-410 -443 0
-414 -435 0
-414 -439 0
-414 -443 0
-435 -439 0
-435 -443 0
-439 -443 0
-339 334 381 411 415 436 440 444 0
-334 339 0
-381 339 0
-411 339 0
-415 339 0
-436 339 0
-440 339 0
-444 339 0
-334 -381 0
-334 -411 0
-334 -415 0
-334 -436 0
-334 -440 0
-334 -444 0
-381 -411 0
-381 -415 0
-381 -436 0
-381 -440 0
-381 -444 0
-411 -415 0
-411 -436 0
-411 -440 0
-411 -444 0
-415 -436 0
-415 -440 0
-415 -444 0
-436 -440 0
-436 -444 0
-440 -444 0
-335 338 382 412 416 437 441 445 0
-338 335 0
-382 335 0
-412 335 0
-416 335 0
-437 335 0
-441 335 0
-445 335 0
-338 -382 0
-338 -412 0
-338 -416 0
-338 -437 0
-338 -441 0
-338 -445 0
-382 -412 0
-382 -416 0
-382 -437 0
-382 -441 0
-382 -445 0
-412 -416 0
-412 -437 0
-412 -441 0
-412 -445 0
-416 -437 0
-416 -441 0
-416 -445 0
-437 -441 0
-437 -445 0
-441 -445 0
-336 340 383 413 417 438 442 446 0
-340 336 0
-383 336 0
-413 336 0
-417 336 0
-438 336 0
-442 336 0
-446 336 0
-340 -383 0
-340 -413 0
-340 -417 0
-340 -438 0
-340 -442 0
-340 -446 0
-383 -413 0
-383 -417 0
-383 -438 0
-383 -442 0
-383 -446 0
-413 -417 0
-413 -438 0
-413 -442 0
-413 -446 0
-417 -438 0
-417 -442 0
-417 -446 0
-438 -442 0
-438 -446 0
-442 -446 0
-337 341 384 414 418 439 443 447 0
-341 337 0
-384 337 0
-414 337 0
-418 337 0
-439 337 0
-443 337 0
-447 337 0
-341 -384 0
-341 -414 0
-341 -418 0
-341 -439 0
-341 -443 0
-341 -447 0
-384 -414 0
-384 -418 0
-384 -439 0
-384 -443 0
-384 -447 0
-414 -418 0
-414 -439 0
-414 -443 0
-414 -447 0
-418 -439 0
-418 -443 0
-418 -447 0
-439 -443 0
-439 -447 0
-443 -447 0
-347 342 385 415 419 440 444 0
-342 347 0
-385 347 0
-415 347 0
-419 347 0
-440 347 0
-444 347 0
-342 -385 0
-342 -415 0
-342 -419 0
-342 -440 0
-342 -444 0
-385 -415 0
-385 -419 0
-385 -440 0
-385 -444 0
-415 -419 0
-415 -440 0
-415 -444 0
-419 -440 0
-419 -444 0
-440 -444 0
-343 346 386 416 420 441 445 0
-346 343 0
-386 343 0
-416 343 0
-420 343 0
-441 343 0
-445 343 0
-346 -386 0
-346 -416 0
-346 -420 0
-346 -441 0
-346 -445 0
-386 -416 0
-386 -420 0
-386 -441 0
-386 -445 0
-416 -420 0
-416 -441 0
-416 -445 0
-420 -441 0
-420 -445 0
-441 -445 0
-344 348 387 417 421 442 446 0
-348 344 0
-387 344 0
-417 344 0
-421 344 0
-442 344 0
-446 344 0
-348 -387 0
-348 -417 0
-348 -421 0
-348 -442 0
-348 -446 0
-387 -417 0
-387 -421 0
-387 -442 0
-387 -446 0
-417 -421 0
-417 -442 0
-417 -446 0
-421 -442 0
-421 -446 0
-442 -446 0
-345 349 388 418 422 443 447 0
-349 345 0
-388 345 0
-418 345 0
-422 345 0
-443 345 0
-447 345 0
-349 -388 0
-349 -418 0
-349 -422 0
-349 -443 0
-349 -447 0
-388 -418 0
-388 -422 0
-388 -443 0
-388 -447 0
-418 -422 0
-418 -443 0
-418 -447 0
-422 -443 0
-422 -447 0
-443 -447 0
-355 350 389 419 444 0
-350 355 0
-389 355 0
-419 355 0
-444 355 0
-350 -389 0
-350 -419 0
-350 -444 0
-389 -419 0
-389 -444 0
-419 -444 0
-351 354 390 420 445 0
-354 351 0
-390 351 0
-420 351 0
-445 351 0
-354 -390 0
-354 -420 0
-354 -445 0
-390 -420 0
-390 -445 0
-420 -445 0
-352 356 391 421 446 0
-356 352 0
-391 352 0
-421 352 0
-446 352 0
-356 -391 0
-356 -421 0
-356 -446 0
-391 -421 0
-391 -446 0
-421 -446 0
-353 357 392 422 447 0
-357 353 0
-392 353 0
-422 353 0
-447 353 0
-357 -392 0
-357 -422 0
-357 -447 0
-392 -422 0
-392 -447 0
-422 -447 0
448 449 450 451 452 453 0
-448 -449 0
-448 -450 0
-448 -451 0
-448 -452 0
-448 -453 0
-449 -450 0
-449 -451 0
-449 -452 0
-449 -453 0
-450 -451 0
-450 -452 0
-450 -453 0
-451 -452 0
-451 -453 0
-452 -453 0
454 455 456 457 0
-454 -455 0
-454 -456 0
-454 -457 0
-455 -456 0
-455 -457 0
-456 -457 0
-458 448 0
-458 454 0
-448 -454 458 0
-458 462 459 460 461 0
-458 -462 -459 0
-458 -462 -460 0
-458 -462 -461 0
-463 448 0
-463 455 0
-448 -455 463 0
-463 464 0
-463 462 460 461 0
-463 -462 -460 0
-463 -462 -461 0
-465 448 0
-465 456 0
-448 -456 465 0
-465 459 0
-465 462 461 0
-465 -462 -461 0
-466 448 0
-466 457 0
-448 -457 466 0
-466 460 0
-466 462 0
-467 449 0
-467 454 0
-449 -454 467 0
-467 462 468 469 470 0
-467 -462 -468 0
-467 -462 -469 0
-467 -462 -470 0
-471 449 0
-471 455 0
-449 -455 471 0
-471 472 0
-471 462 469 470 0
-471 -462 -469 0
-471 -462 -470 0
-473 449 0
-473 456 0
-449 -456 473 0
-473 468 0
-473 462 470 0
-473 -462 -470 0
-474 449 0
-474 457 0
-449 -457 474 0
-474 469 0
-474 462 0
-475 450 0
-475 454 0
-450 -454 475 0
-475 462 476 477 478 0
-475 -462 -476 0
-475 -462 -477 0
-475 -462 -478 0
-479 450 0
-479 455 0
-450 -455 479 0
-479 480 0
-479 462 477 478 0
-479 -462 -477 0
-479 -462 -478 0
-481 450 0
-481 456 0
-450 -456 481 0
-481 476 0
-481 462 478 0
-481 -462 -478 0
-482 450 0
-482 457 0
-450 -457 482 0
-482 477 0
-482 462 0
-483 451 0
-483 454 0
-451 -454 483 0
-483 462 484 485 486 0
-483 -462 -484 0
-483 -462 -485 0
-483 -462 -486 0
-487 451 0
-487 455 0
-451 -455 487 0
-487 488 0
-487 462 485 486 0
-487 -462 -485 0
-487 -462 -486 0
-489 451 0
-489 456 0
-451 -456 489 0
-489 484 0
-489 462 486 0
-489 -462 -486 0
-490 451 0
-490 457 0
-451 -457 490 0
-490 485 0
-490 462 0
-491 452 0
-491 454 0
-452 -454 491 0
-491 462 492 493 494 0
-491 -462 -492 0
-491 -462 -493 0
-491 -462 -494 0
-495 452 0
-495 455 0
-452 -455 495 0
-495 496 0
-495 462 493 494 0
-495 -462 -493 0
-495 -462 -494 0
-497 452 0
-497 456 0
-452 -456 497 0
-497 492 0
-497 462 494 0
-497 -462 -494 0
-498 452 0
-498 457 0
-452 -457 498 0
-498 493 0
-498 462 0
-499 453 0
-499 454 0
-453 -454 499 0
-499 462 500 501 502 0
-499 -462 -500 0
-499 -462 -501 0
-499 -462 -502 0
-503 453 0
-503 455 0
-453 -455 503 0
-503 504 0
-503 462 501 502 0
-503 -462 -501 0
-503 -462 -502 0
-505 453 0
-505 456 0
-453 -456 505 0
-505 500 0
-505 462 502 0
-505 -462 -502 0
-506 453 0
-506 457 0
-453 -457 506 0
-506 501 0
-506 462 0
507 508 509 510 511 512 0
-507 -508 0
-507 -509 0
-507 -510 0
-507 -511 0
-507 -512 0
-508 -509 0
-508 -510 0
-508 -511 0
-508 -512 0
-509 -510 0
-509 -511 0
-509 -512 0
-510 -511 0
-510 -512 0
-511 -512 0
513 514 515 516 0
-513 -514 0
-513 -515 0
-513 -516 0
-514 -515 0
-514 -516 0
-515 -516 0
-517 507 0
-517 513 0
-507 -513 517 0
-517 518 459 460 461 0
-517 -518 -459 0
-517 -518 -460 0
-517 -518 -461 0
-519 507 0
-519 514 0
-507 -514 519 0
-519 464 0
-519 518 460 461 0
-519 -518 -460 0
-519 -518 -461 0
-520 507 0
-520 515 0
-507 -515 520 0
-520 459 0
-520 518 461 0
-520 -518 -461 0
-521 507 0
-521 516 0
-507 -516 521 0
-521 460 0
-521 518 0
-522 508 0
-522 513 0
-508 -513 522 0
-522 518 468 469 470 0
-522 -518 -468 0
-522 -518 -469 0
-522 -518 -470 0
-523 508 0
-523 514 0
-508 -514 523 0
-523 472 0
-523 518 469 470 0
-523 -518 -469 0
-523 -518 -470 0
-524 508 0
-524 515 0
-508 -515 524 0
-524 468 0
-524 518 470 0
-524 -518 -470 0
-525 508 0
-525 516 0
-508 -516 525 0
-525 469 0
-525 518 0
-526 509 0
-526 513 0
-509 -513 526 0
-526 518 476 477 478 0
-526 -518 -476 0
-526 -518 -477 0
-526 -518 -478 0
-527 509 0
-527 514 0
-509 -514 527 0
-527 480 0
-527 518 477 478 0
-527 -518 -477 0
-527 -518 -478 0
-528 509 0
-528 515 0
-509 -515 528 0
-528 476 0
-528 518 478 0
-528 -518 -478 0
-529 509 0
-529 516 0
-509 -516 529 0
-529 477 0
-529 518 0
-530 510 0
-530 513 0
-510 -513 530 0
-530 518 484 485 486 0
-530 -518 -484 0
-530 -518 -485 0
-530 -518 -486 0
-531 510 0
-531 514 0
-510 -514 531 0
-531 488 0
-531 518 485 486 0
-531 -518 -485 0
-531 -518 -486 0
-532 510 0
-532 515 0
-510 -515 532 0
-532 484 0
-532 518 486 0
-532 -518 -486 0
-533 510 0
-533 516 0
-510 -516 533 0
-533 485 0
-533 518 0
-534 511 0
-534 513 0
-511 -513 534 0
-534 518 492 493 494 0
-534 -518 -492 0
-534 -518 -493 0
-534 -518 -494 0
-535 511 0
-535 514 0
-511 -514 535 0
-535 496 0
-535 518 493 494 0
-535 -518 -493 0
-535 -518 -494 0
-536 511 0
-536 515 0
-511 -515 536 0
-536 492 0
-536 518 494 0
-536 -518 -494 0
-537 511 0
-537 516 0
-511 -516 537 0
-537 493 0
-537 518 0
-538 512 0
-538 513 0
-512 -513 538 0
-538 518 500 501 502 0
-538 -518 -500 0
-538 -518 -501 0
-538 -518 -502 0
-539 512 0
-539 514 0
-512 -514 539 0
-539 504 0
-539 518 501 502 0
-539 -518 -501 0
-539 -518 -502 0
-540 512 0
-540 515 0
-512 -515 540 0
-540 500 0
-540 518 502 0
-540 -518 -502 0
-541 512 0
-541 516 0
-512 -516 541 0
-541 501 0
-541 518 0
542 543 544 545 546 0
-542 -543 0
-542 -544 0
-542 -545 0
-542 -546 0
-543 -544 0
-543 -545 0
-543 -546 0
-544 -545 0
-544 -546 0
-545 -546 0
547 548 549 550 0
-547 -548 0
-547 -549 0
-547 -550 0
-548 -549 0
-548 -550 0
-549 -550 0
-551 542 0
-551 547 0
-542 -547 551 0
-551 552 459 460 461 468 469 470 0
-551 -552 -459 0
-551 -552 -460 0
-551 -552 -461 0
-551 -552 -468 0
-551 -552 -469 0
-551 -552 -470 0
-553 542 0
-553 548 0
-542 -548 553 0
-553 464 472 0
-553 552 460 461 469 470 0
-553 -552 -460 0
-553 -552 -461 0
-553 -552 -469 0
-553 -552 -470 0
-554 542 0
-554 549 0
-542 -549 554 0
-554 459 468 0
-554 552 461 470 0
-554 -552 -461 0
-554 -552 -470 0
-555 542 0
-555 550 0
-542 -550 555 0
-555 460 469 0
-555 552 0
-556 543 0
-556 547 0
-543 -547 556 0
-556 552 468 469 470 476 477 478 0
-556 -552 -468 0
-556 -552 -469 0
-556 -552 -470 0
-556 -552 -476 0
-556 -552 -477 0
-556 -552 -478 0
-557 543 0
-557 548 0
-543 -548 557 0
-557 472 480 0
-557 552 469 470 477 478 0
-557 -552 -469 0
-557 -552 -470 0
-557 -552 -477 0
-557 -552 -478 0
-558 543 0
-558 549 0
-543 -549 558 0
-558 468 476 0
-558 552 470 478 0
-558 -552 -470 0
-558 -552 -478 0
-559 543 0
-559 550 0
-543 -550 559 0
-559 469 477 0
-559 552 0
-560 544 0
-560 547 0
-544 -547 560 0
-560 552 476 477 478 484 485 486 0
-560 -552 -476 0
-560 -552 -477 0
-560 -552 -478 0
-560 -552 -484 0
-560 -552 -485 0
-560 -552 -486 0
-561 544 0
-561 548 0
-544 -548 561 0
-561 480 488 0
-561 552 477 478 485 486 0
-561 -552 -477 0
-561 -552 -478 0
-561 -552 -485 0
-561 -552 -486 0
-562 544 0
-562 549 0
-544 -549 562 0
-562 476 484 0
-562 552 478 486 0
-562 -552 -478 0
-562 -552 -486 0
-563 544 0
-563 550 0
-544 -550 563 0
-563 477 485 0
-563 552 0
-564 545 0
-564 547 0
-545 -547 564 0
-564 552 484 485 486 492 493 494 0
-564 -552 -484 0
-564 -552 -485 0
-564 -552 -486 0
-564 -552 -492 0
-564 -552 -493 0
-564 -552 -494 0
-565 545 0
-565 548 0
-545 -548 565 0
-565 488 496 0
-565 552 485 486 493 494 0
-565 -552 -485 0
-565 -552 -486 0
-565 -552 -493 0
-565 -552 -494 0
-566 545 0
-566 549 0
-545 -549 566 0
-566 484 492 0
-566 552 486 494 0
-566 -552 -486 0
-566 -552 -494 0
-567 545 0
-567 550 0
-545 -550 567 0
-567 485 493 0
-567 552 0
-568 546 0
-568 547 0
-546 -547 568 0
-568 552 492 493 494 500 501 502 0
-568 -552 -492 0
-568 -552 -493 0
-568 -552 -494 0
-568 -552 -500 0
-568 -552 -501 0
-568 -552 -502 0
-569 546 0
-569 548 0
-546 -548 569 0
-569 496 504 0
-569 552 493 494 501 502 0
-569 -552 -493 0
-569 -552 -494 0
-569 -552 -501 0
-569 -552 -502 0
-570 546 0
-570 549 0
-546 -549 570 0
-570 492 500 0
-570 552 494 502 0
-570 -552 -494 0
-570 -552 -502 0
-571 546 0
-571 550 0
-546 -550 571 0
-571 493 501 0
-571 552 0
572 573 574 575 0
-572 -573 0
-572 -574 0
-572 -575 0
-573 -574 0
-573 -575 0
-574 -575 0
576 577 578 579 0
-576 -577 0
-576 -578 0
-576 -579 0
-577 -578 0
-577 -579 0
-578 -579 0
-580 572 0
-580 576 0
-572 -576 580 0
-580 581 459 460 461 468 469 470 476 477 478 0
-580 -581 -459 0
-580 -581 -460 0
-580 -581 -461 0
-580 -581 -468 0
-580 -581 -469 0
-580 -581 -470 0
-580 -581 -476 0
-580 -581 -477 0
-580 -581 -478 0
-582 572 0
-582 577 0
-572 -577 582 0
-582 464 472 0
-582 464 480 0
-582 472 480 0
-582 581 460 461 469 470 477 478 0
-582 -581 -460 0
-582 -581 -461 0
-582 -581 -469 0
-582 -581 -470 0
-582 -581 -477 0
-582 -581 -478 0
-583 572 0
-583 578 0
-572 -578 583 0
-583 459 468 0
-583 459 476 0
-583 468 476 0
-583 581 461 470 478 0
-583 -581 -461 0
-583 -581 -470 0
-583 -581 -478 0
-584 572 0
-584 579 0
-572 -579 584 0
-584 460 469 0
-584 460 477 0
-584 469 477 0
-584 581 0
-585 573 0
-585 576 0
-573 -576 585 0
-585 581 468 469 470 476 477 478 484 485 486 0
-585 -581 -468 0
-585 -581 -469 0
-585 -581 -470 0
-585 -581 -476 0
-585 -581 -477 0
-585 -581 -478 0
-585 -581 -484 0
-585 -581 -485 0
-585 -581 -486 0
-586 573 0
-586 577 0
-573 -577 586 0
-586 472 480 0
-586 472 488 0
-586 480 488 0
-586 581 469 470 477 478 485 486 0
-586 -581 -469 0
-586 -581 -470 0
-586 -581 -477 0
-586 -581 -478 0
-586 -581 -485 0
-586 -581 -486 0
-587 573 0
-587 578 0
-573 -578 587 0
-587 468 476 0
-587 468 484 0
-587 476 484 0
-587 581 470 478 486 0
-587 -581 -470 0
-587 -581 -478 0
-587 -581 -486 0
-588 573 0
-588 579 0
-573 -579 588 0
-588 469 477 0
-588 469 485 0
-588 477 485 0
-588 581 0
-589 574 0
-589 576 0
-574 -576 589 0
-589 581 476 477 478 484 485 486 492 493 494 0
-589 -581 -476 0
-589 -581 -477 0
-589 -581 -478 0
-589 -581 -484 0
-589 -581 -485 0
-589 -581 -486 0
-589 -581 -492 0
-589 -581 -493 0
-589 -581 -494 0
-590 574 0
-590 577 0
-574 -577 590 0
-590 480 488 0
-590 480 496 0
-590 488 496 0
-590 581 477 478 485 486 493 494 0
-590 -581 -477 0
-590 -581 -478 0
-590 -581 -485 0
-590 -581 -486 0
-590 -581 -493 0
-590 -581 -494 0
-591 574 0
-591 578 0
-574 -578 591 0
-591 476 484 0
-591 476 492 0
-591 484 492 0
-591 581 478 486 494 0
-591 -581 -478 0
-591 -581 -486 0
-591 -581 -494 0
-592 574 0
-592 579 0
-574 -579 592 0
-592 477 485 0
-592 477 493 0
-592 485 493 0
-592 581 0
-593 575 0
-593 576 0
-575 -576 593 0
-593 581 484 485 486 492 493 494 500 501 502 0
-593 -581 -484 0
-593 -581 -485 0
-593 -581 -486 0
-593 -581 -492 0
-593 -581 -493 0
-593 -581 -494 0
-593 -581 -500 0
-593 -581 -501 0
-593 -581 -502 0
-594 575 0
-594 577 0
-575 -577 594 0
-594 488 496 0
-594 488 504 0
-594 496 504 0
-594 581 485 486 493 494 501 502 0
-594 -581 -485 0
-594 -581 -486 0
-594 -581 -493 0
-594 -581 -494 0
-594 -581 -501 0
-594 -581 -502 0
-595 575 0
-595 578 0
-575 -578 595 0
-595 484 492 0
-595 484 500 0
-595 492 500 0
-595 581 486 494 502 0
-595 -581 -486 0
-595 -581 -494 0
-595 -581 -502 0
-596 575 0
-596 579 0
-575 -579 596 0
-596 485 493 0
-596 485 501 0
-596 493 501 0
-596 581 0
-464 458 517 551 580 0
-458 464 0
-517 464 0
-551 464 0
-580 464 0
-458 -517 0
-458 -551 0
-458 -580 0
-517 -551 0
-517 -580 0
-551 -580 0
-459 463 519 553 582 0
-463 459 0
-519 459 0
-553 459 0
-582 459 0
-463 -519 0
-463 -553 0
-463 -582 0
-519 -553 0
-519 -582 0
-553 -582 0
-460 465 520 554 583 0
-465 460 0
-520 460 0
-554 460 0
-583 460 0
-465 -520 0
-465 -554 0
-465 -583 0
-520 -554 0
-520 -583 0
-554 -583 0
-461 466 521 555 584 0
-466 461 0
-521 461 0
-555 461 0
-584 461 0
-466 -521 0
-466 -555 0
-466 -584 0
-521 -555 0
-521 -584 0
-555 -584 0
-472 467 522 551 556 580 585 0
-467 472 0
-522 472 0
-551 472 0
-556 472 0
-580 472 0
-585 472 0
-467 -522 0
-467 -551 0
-467 -556 0
-467 -580 0
-467 -585 0
-522 -551 0
-522 -556 0
-522 -580 0
-522 -585 0
-551 -556 0
-551 -580 0
-551 -585 0
-556 -580 0
-556 -585 0
-580 -585 0
-468 471 523 553 557 582 586 0
-471 468 0
-523 468 0
-553 468 0
-557 468 0
-582 468 0
-586 468 0
-471 -523 0
-471 -553 0
-471 -557 0
-471 -582 0
-471 -586 0
-523 -553 0
-523 -557 0
-523 -582 0
-523 -586 0
-553 -557 0
-553 -582 0
-553 -586 0
-557 -582 0
-557 -586 0
-582 -586 0
-469 473 524 554 558 583 587 0
-473 469 0
-524 469 0
-554 469 0
-558 469 0
-583 469 0
-587 469 0
-473 -524 0
-473 -554 0
-473 -558 0
-473 -583 0
-473 -587 0
-524 -554 0
-524 -558 0
-524 -583 0
-524 -587 0
-554 -558 0
-554 -583 0
-554 -587 0
-558 -583 0
-558 -587 0
-583 -587 0
-470 474 525 555 559 584 588 0
-474 470 0
-525 470 0
-555 470 0
-559 470 0
-584 470 0
-588 470 0
-474 -525 0
-474 -555 0
-474 -559 0
-474 -584 0
-474 -588 0
-525 -555 0
-525 -559 0
-525 -584 0
-525 -588 0
-555 -559 0
-555 -584 0
-555 -588 0
-559 -584 0
-559 -588 0
-584 -588 0
-480 475 526 556 560 580 585 589 0
-475 480 0
-526 480 0
-556 480 0
-560 480 0
-580 480 0
-585 480 0
-589 480 0
-475 -526 0
-475 -556 0
-475 -560 0
-475 -580 0
-475 -585 0
-475 -589 0
-526 -556 0
-526 -560 0
-526 -580 0
-526 -585 0
-526 -589 0
-556 -560 0
-556 -580 0
-556 -585 0
-556 -589 0
-560 -580 0
-560 -585 0
-560 -589 0
-580 -585 0
-580 -589 0
-585 -589 0
-476 479 527 557 561 582 586 590 0
-479 476 0
-527 476 0
-557 476 0
-561 476 0
-582 476 0
-586 476 0
-590 476 0
-479 -527 0
-479 -557 0
-479 -561 0
-479 -582 0
-479 -586 0
-479 -590 0
-527 -557 0
-527 -561 0
-527 -582 0
-527 -586 0
-527 -590 0
-557 -561 0
-557 -582 0
-557 -586 0
-557 -590 0
-561 -582 0
-561 -586 0
-561 -590 0
-582 -586 0
-582 -590 0
-586 -590 0
-477 481 528 558 562 583 587 591 0
-481 477 0
-528 477 0
-558 477 0
-562 477 0
-583 477 0
-587 477 0
-591 477 0
-481 -528 0
-481 -558 0
-481 -562 0
-481 -583 0
-481 -587 0
-481 -591 0
-528 -558 0
-528 -562 0
-528 -583 0
-528 -587 0
-528 -591 0
-558 -562 0
-558 -583 0
-558 -587 0
-558 -591 0
-562 -583 0
-562 -587 0
-562 -591 0
-583 -587 0
-583 -591 0
-587 -591 0
-478 482 529 559 563 584 588 592 0
-482 478 0
-529 478 0
-559 478 0
-563 478 0
-584 478 0
-588 478 0
-592 478 0
-482 -529 0
-482 -559 0
-482 -563 0
-482 -584 0
-482 -588 0
-482 -592 0
-529 -559 0
-529 -563 0
-529 -584 0
-529 -588 0
-529 -592 0
-559 -563 0
-559 -584 0
-559 -588 0
-559 -592 0
-563 -584 0
-563 -588 0
-563 -592 0
-584 -588 0
-584 -592 0
-588 -592 0
-488 483 530 560 564 585 589 593 0
-483 488 0
-530 488 0
-560 488 0
-564 488 0
-585 488 0
-589 488 0
-593 488 0
-483 -530 0
-483 -560 0
-483 -564 0
-483 -585 0
-483 -589 0
-483 -593 0
-530 -560 0
-530 -564 0
-530 -585 0
-530 -589 0
-530 -593 0
-560 -564 0
-560 -585 0
-560 -589 0
-560 -593 0
-564 -585 0
-564 -589 0
-564 -593 0
-585 -589 0
-585 -593 0
-589 -593 0
-484 487 531 561 565 586 590 594 0
-487 484 0
-531 484 0
-561 484 0
-565 484 0
-586 484 0
-590 484 0
-594 484 0
-487 -531 0
-487 -561 0
-487 -565 0
-487 -586 0
-487 -590 0
-487 -594 0
-531 -561 0
-531 -565 0
-531 -586 0
-531 -590 0
-531 -594 0
-561 -565 0
-561 -586 0
-561 -590 0
-561 -594 0
-565 -586 0
-565 -590 0
-565 -594 0
-586 -590 0
-586 -594 0
-590 -594 0
-485 489 532 562 566 587 591 595 0
-489 485 0
-532 485 0
-562 485 0
-566 485 0
-587 485 0
-591 485 0
-595 485 0
-489 -532 0
-489 -562 0
-489 -566 0
-489 -587 0
-489 -591 0
-489 -595 0
-532 -562 0
-532 -566 0
-532 -587 0
-532 -591 0
-532 -595 0
-562 -566 0
-562 -587 0
-562 -591 0
-562 -595 0
-566 -587 0
-566 -591 0
-566 -595 0
-587 -591 0
-587 -595 0
-591 -595 0
-486 490 533 563 567 588 592 596 0
-490 486 0
-533 486 0
-563 486 0
-567 486 0
-588 486 0
-592 486 0
-596 486 0
-490 -533 0
-490 -563 0
-490 -567 0
-490 -588 0
-490 -592 0
-490 -596 0
-533 -563 0
-533 -567 0
-533 -588 0
-533 -592 0
-533 -596 0
-563 -567 0
-563 -588 0
-563 -592 0
-563 -596 0
-567 -588 0
-567 -592 0
-567 -596 0
-588 -592 0
-588 -596 0
-592 -596 0
-496 491 534 564 568 589 593 0
-491 496 0
-534 496 0
-564 496 0
-568 496 0
-589 496 0
-593 496 0
-491 -534 0
-491 -564 0
-491 -568 0
-491 -589 0
-491 -593 0
-534 -564 0
-534 -568 0
-534 -589 0
-534 -593 0
-564 -568 0
-564 -589 0
-564 -593 0
-568 -589 0
-568 -593 0
-589 -593 0
-492 495 535 565 569 590 594 0
-495 492 0
-535 492 0
-565 492 0
-569 492 0
-590 492 0
-594 492 0
-495 -535 0
-495 -565 0
-495 -569 0
-495 -590 0
-495 -594 0
-535 -565 0
-535 -569 0
-535 -590 0
-535 -594 0
-565 -569 0
-565 -590 0
-565 -594 0
-569 -590 0
-569 -594 0
-590 -594 0
-493 497 536 566 570 591 595 0
-497 493 0
-536 493 0
-566 493 0
-570 493 0
-591 493 0
-595 493 0
-497 -536 0
-497 -566 0
-497 -570 0
-497 -591 0
-497 -595 0
-536 -566 0
-536 -570 0
-536 -591 0
-536 -595 0
-566 -570 0
-566 -591 0
-566 -595 0
-570 -591 0
-570 -595 0
-591 -595 0
-494 498 537 567 571 592 596 0
-498 494 0
-537 494 0
-567 494 0
-571 494 0
-592 494 0
-596 494 0
-498 -537 0
-498 -567 0
-498 -571 0
-498 -592 0
-498 -596 0
-537 -567 0
-537 -571 0
-537 -592 0
-537 -596 0
-567 -571 0
-567 -592 0
-567 -596 0
-571 -592 0
-571 -596 0
-592 -596 0
-504 499 538 568 593 0
-499 504 0
-538 504 0
-568 504 0
-593 504 0
-499 -538 0
-499 -568 0
-499 -593 0
-538 -568 0
-538 -593 0
-568 -593 0
-500 503 539 569 594 0
-503 500 0
-539 500 0
-569 500 0
-594 500 0
-503 -539 0
-503 -569 0
-503 -594 0
-539 -569 0
-539 -594 0
-569 -594 0
-501 505 540 570 595 0
-505 501 0
-540 501 0
-570 501 0
-595 501 0
-505 -540 0
-505 -570 0
-505 -595 0
-540 -570 0
-540 -595 0
-570 -595 0
-502 506 541 571 596 0
-506 502 0
-541 502 0
-571 502 0
-596 502 0
-506 -541 0
-506 -571 0
-506 -596 0
-541 -571 0
-541 -596 0
-571 -596 0
597 598 599 600 601 602 0
-597 -598 0
-597 -599 0
-597 -600 0
-597 -601 0
-597 -602 0
-598 -599 0
-598 -600 0
-598 -601 0
-598 -602 0
-599 -600 0
-599 -601 0
-599 -602 0
-600 -601 0
-600 -602 0
-601 -602 0
603 604 605 606 0
-603 -604 0
-603 -605 0
-603 -606 0
-604 -605 0
-604 -606 0
-605 -606 0
-607 597 0
-607 603 0
-597 -603 607 0
-607 611 608 609 610 0
-607 -611 -608 0
-607 -611 -609 0
-607 -611 -610 0
-612 597 0
-612 604 0
-597 -604 612 0
-612 613 0
-612 611 609 610 0
-612 -611 -609 0
-612 -611 -610 0
-614 597 0
-614 605 0
-597 -605 614 0
-614 608 0
-614 611 610 0
-614 -611 -610 0
-615 597 0
-615 606 0
-597 -606 615 0
-615 609 0
-615 611 0
-616 598 0
-616 603 0
-598 -603 616 0
-616 611 617 618 619 0
-616 -611 -617 0
-616 -611 -618 0
-616 -611 -619 0
-620 598 0
-620 604 0
-598 -604 620 0
-620 621 0
-620 611 618 619 0
-620 -611 -618 0
-620 -611 -619 0
-622 598 0
-622 605 0
-598 -605 622 0
-622 617 0
-622 611 619 0
-622 -611 -619 0
-623 598 0
-623 606 0
-598 -606 623 0
-623 618 0
-623 611 0
-624 599 0
-624 603 0
-599 -603 624 0
-624 611 625 626 627 0
-624 -611 -625 0
-624 -611 -626 0
-624 -611 -627 0
-628 599 0
-628 604 0
-599 -604 628 0
-628 629 0
-628 611 626 627 0
-628 -611 -626 0
-628 -611 -627 0
-630 599 0
-630 605 0
-599 -605 630 0
-630 625 0
-630 611 627 0
-630 -611 -627 0
-631 599 0
-631 606 0
-599 -606 631 0
-631 626 0
-631 611 0
-632 600 0
-632 603 0
-600 -603 632 0
-632 611 633 634 635 0
-632 -611 -633 0
-632 -611 -634 0
-632 -611 -635 0
-636 600 0
-636 604 0
-600 -604 636 0
-636 637 0
-636 611 634 635 0
-636 -611 -634 0
-636 -611 -635 0
-638 600 0
-638 605 0
-600 -605 638 0
-638 633 0
-638 611 635 0
-638 -611 -635 0
-639 600 0
-639 606 0
-600 -606 639 0
-639 634 0
-639 611 0
-640 601 0
-640 603 0
-601 -603 640 0
-640 611 641 642 643 0
-640 -611 -641 0
-640 -611 -642 0
-640 -611 -643 0
-644 601 0
-644 604 0
-601 -604 644 0
-644 645 0
-644 611 642 643 0
-644 -611 -642 0
-644 -611 -643 0
-646 601 0
-646 605 0
-601 -605 646 0
-646 641 0
-646 611 643 0
-646 -611 -643 0
-647 601 0
-647 606 0
-601 -606 647 0
-647 642 0
-647 611 0
-648 602 0
-648 603 0
-602 -603 648 0
-648 611 649 650 651 0
-648 -611 -649 0
-648 -611 -650 0
-648 -611 -651 0
-652 602 0
-652 604 0
-602 -604 652 0
-652 653 0
-652 611 650 651 0
-652 -611 -650 0
-652 -611 -651 0
-654 602 0
-654 605 0
-602 -605 654 0
-654 649 0
-654 611 651 0
-654 -611 -651 0
-655 602 0
-655 606 0
-602 -606 655 0
-655 650 0
-655 611 0
656 657 658 659 660 661 0
-656 -657 0
-656 -658 0
-656 -659 0
-656 -660 0
-656 -661 0
-657 -658 0
-657 -659 0
-657 -660 0
-657 -661 0
-658 -659 0
-658 -660 0
-658 -661 0
-659 -660 0
-659 -661 0
-660 -661 0
662 663 664 665 0
-662 -663 0
-662 -664 0
-662 -665 0
-663 -664 0
-663 -665 0
-664 -665 0
-666 656 0
-666 662 0
-656 -662 666 0
-666 667 608 609 610 0
-666 -667 -608 0
-666 -667 -609 0
-666 -667 -610 0
-668 656 0
-668 663 0
-656 -663 668 0
-668 613 0
-668 667 609 610 0
-668 -667 -609 0
-668 -667 -610 0
-669 656 0
-669 664 0
-656 -664 669 0
-669 608 0
-669 667 610 0
-669 -667 -610 0
-670 656 0
-670 665 0
-656 -665 670 0
-670 609 0
-670 667 0
-671 657 0
-671 662 0
-657 -662 671 0
-671 667 617 618 619 0
-671 -667 -617 0
-671 -667 -618 0
-671 -667 -619 0
-672 657 0
-672 663 0
-657 -663 672 0
-672 621 0
-672 667 618 619 0
-672 -667 -618 0
-672 -667 -619 0
-673 657 0
-673 664 0
-657 -664 673 0
-673 617 0
-673 667 619 0
-673 -667 -619 0
-674 657 0
-674 665 0
-657 -665 674 0
-674 618 0
-674 667 0
-675 658 0
-675 662 0
-658 -662 675 0
-675 667 625 626 627 0
-675 -667 -625 0
-675 -667 -626 0
-675 -667 -627 0
-676 658 0
-676 663 0
-658 -663 676 0
-676 629 0
-676 667 626 627 0
-676 -667 -626 0
-676 -667 -627 0
-677 658 0
-677 664 0
-658 -664 677 0
-677 625 0
-677 667 627 0
-677 -667 -627 0
-678 658 0
-678 665 0
-658 -665 678 0
-678 626 0
-678 667 0
-679 659 0
-679 662 0
-659 -662 679 0
-679 667 633 634 635 0
-679 -667 -633 0
-679 -667 -634 0
-679 -667 -635 0
-680 659 0
-680 663 0
-659 -663 680 0
-680 637 0
-680 667 634 635 0
-680 -667 -634 0
-680 -667 -635 0
-681 659 0
-681 664 0
-659 -664 681 0
-681 633 0
-681 667 635 0
-681 -667 -635 0
-682 659 0
-682 665 0
-659 -665 682 0
-682 634 0
-682 667 0
-683 660 0
-683 662 0
-660 -662 683 0
-683 667 641 642 643 0
-683 -667 -641 0
-683 -667 -642 0
-683 -667 -643 0
-684 660 0
-684 663 0
-660 -663 684 0
-684 645 0
-684 667 642 643 0
-684 -667 -642 0
-684 -667 -643 0
-685 660 0
-685 664 0
-660 -664 685 0
-685 641 0
-685 667 643 0
-685 -667 -643 0
-686 660 0
-686 665 0
-660 -665 686 0
-686 642 0
-686 667 0
-687 661 0
-687 662 0
-661 -662 687 0
-687 667 649 650 651 0
-687 -667 -649 0
-687 -667 -650 0
-687 -667 -651 0
-688 661 0
-688 663 0
-661 -663 688 0
-688 653 0
-688 667 650 651 0
-688 -667 -650 0
-688 -667 -651 0
-689 661 0
-689 664 0
-661 -664 689 0
-689 649 0
-689 667 651 0
-689 -667 -651 0
-690 661 0
-690 665 0
-661 -665 690 0
-690 650 0
-690 667 0
691 692 693 694 695 0
-691 -692 0
-691 -693 0
-691 -694 0
-691 -695 0
-692 -693 0
-692 -694 0
-692 -695 0
-693 -694 0
-693 -695 0
-694 -695 0
696 697 698 699 0
-696 -697 0
-696 -698 0
-696 -699 0
-697 -698 0
-697 -699 0
-698 -699 0
-700 691 0
-700 696 0
-691 -696 700 0
-700 701 608 609 610 617 618 619 0
-700 -701 -608 0
-700 -701 -609 0
-700 -701 -610 0
-700 -701 -617 0
-700 -701 -618 0
-700 -701 -619 0
-702 691 0
-702 697 0
-691 -697 702 0
-702 613 621 0
-702 701 609 610 618 619 0
-702 -701 -609 0
-702 -701 -610 0
-702 -701 -618 0
-702 -701 -619 0
-703 691 0
-703 698 0
-691 -698 703 0
-703 608 617 0
-703 701 610 619 0
-703 -701 -610 0
-703 -701 -619 0
-704 691 0
-704 699 0
-691 -699 704 0
-704 609 618 0
-704 701 0
-705 692 0
-705 696 0
-692 -696 705 0
-705 701 617 618 619 625 626 627 0
-705 -701 -617 0
-705 -701 -618 0
-705 -701 -619 0
-705 -701 -625 0
-705 -701 -626 0
-705 -701 -627 0
-706 692 0
-706 697 0
-692 -697 706 0
-706 621 629 0
-706 701 618 619 626 627 0
-706 -701 -618 0
-706 -701 -619 0
-706 -701 -626 0
-706 -701 -627 0
-707 692 0
-707 698 0
-692 -698 707 0
-707 617 625 0
-707 701 619 627 0
-707 -701 -619 0
-707 -701 -627 0
-708 692 0
-708 699 0
-692 -699 708 0
-708 618 626 0
-708 701 0
-709 693 0
-709 696 0
-693 -696 709 0
-709 701 625 626 627 633 634 635 0
-709 -701 -625 0
-709 -701 -626 0
-709 -701 -627 0
-709 -701 -633 0
-709 -701 -634 0
-709 -701 -635 0
-710 693 0
-710 697 0
-693 -697 710 0
-710 629 637 0
-710 701 626 627 634 635 0
-710 -701 -626 0
-710 -701 -627 0
-710 -701 -634 0
-710 -701 -635 0
-711 693 0
-711 698 0
-693 -698 711 0
-711 625 633 0
-711 701 627 635 0
-711 -701 -627 0
-711 -701 -635 0
-712 693 0
-712 699 0
-693 -699 712 0
-712 626 634 0
-712 701 0
-713 694 0
-713 696 0
-694 -696 713 0
-713 701 633 634 635 641 642 643 0
-713 -701 -633 0
-713 -701 -634 0
-713 -701 -635 0
-713 -701 -641 0
-713 -701 -642 0
-713 -701 -643 0
-714 694 0
-714 697 0
-694 -697 714 0
-714 637 645 0
-714 701 634 635 642 643 0
-714 -701 -634 0
-714 -701 -635 0
-714 -701 -642 0
-714 -701 -643 0
-715 694 0
-715 698 0
-694 -698 715 0
-715 633 641 0
-715 701 635 643 0
-715 -701 -635 0
-715 -701 -643 0
-716 694 0
-716 699 0
-694 -699 716 0
-716 634 642 0
-716 701 0
-717 695 0
-717 696 0
-695 -696 717 0
-717 701 641 642 643 649 650 651 0
-717 -701 -641 0
-717 -701 -642 0
-717 -701 -643 0
-717 -701 -649 0
-717 -701 -650 0
-717 -701 -651 0
-718 695 0
-718 697 0
-695 -697 718 0
-718 645 653 0
-718 701 642 643 650 651 0
-718 -701 -642 0
-718 -701 -643 0
-718 -701 -650 0
-718 -701 -651 0
-719 695 0
-719 698 0
-695 -698 719 0
-719 641 649 0
-719 701 643 651 0
-719 -701 -643 0
-719 -701 -651 0
-720 695 0
-720 699 0
-695 -699 720 0
-720 642 650 0
-720 701 0
721 722 723 724 0
-721 -722 0
-721 -723 0
-721 -724 0
-722 -723 0
-722 -724 0
-723 -724 0
725 726 727 728 0
-725 -726 0
-725 -727 0
-725 -728 0
-726 -727 0
-726 -728 0
-727 -728 0
-729 721 0
-729 725 0
-721 -725 729 0
-729 730 608 609 610 617 618 619 625 626 627 0
-729 -730 -608 0
-729 -730 -609 0
-729 -730 -610 0
-729 -730 -617 0
-729 -730 -618 0
-729 -730 -619 0
-729 -730 -625 0
-729 -730 -626 0
-729 -730 -627 0
-731 721 0
-731 726 0
-721 -726 731 0
-731 613 621 0
-731 613 629 0
-731 621 629 0
-731 730 609 610 618 619 626 627 0
-731 -730 -609 0
-731 -730 -610 0
-731 -730 -618 0
-731 -730 -619 0
-731 -730 -626 0
-731 -730 -627 0
-732 721 0
-732 727 0
-721 -727 732 0
-732 608 617 0
-732 608 625 0
-732 617 625 0
-732 730 610 619 627 0
-732 -730 -610 0
-732 -730 -619 0
-732 -730 -627 0
-733 721 0
-733 728 0
-721 -728 733 0
-733 609 618 0
-733 609 626 0
-733 618 626 0
-733 730 0
-734 722 0
-734 725 0
-722 -725 734 0
-734 730 617 618 619 625 626 627 633 634 635 0
-734 -730 -617 0
-734 -730 -618 0
-734 -730 -619 0
-734 -730 -625 0
-734 -730 -626 0
-734 -730 -627 0
-734 -730 -633 0
-734 -730 -634 0
-734 -730 -635 0
-735 722 0
-735 726 0
-722 -726 735 0
-735 621 629 0
-735 621 637 0
-735 629 637 0
-735 730 618 619 626 627 634 635 0
-735 -730 -618 0
-735 -730 -619 0
-735 -730 -626 0
-735 -730 -627 0
-735 -730 -634 0
-735 -730 -635 0
-736 722 0
-736 727 0
-722 -727 736 0
-736 617 625 0
-736 617 633 0
-736 625 633 0
-736 730 619 627 635 0
-736 -730 -619 0
-736 -730 -627 0
-736 -730 -635 0
-737 722 0
-737 728 0
-722 -728 737 0
-737 618 626 0
-737 618 634 0
-737 626 634 0
-737 730 0
-738 723 0
-738 725 0
-723 -725 738 0
-738 730 625 626 627 633 634 635 641 642 643 0
-738 -730 -625 0
-738 -730 -626 0
-738 -730 -627 0
-738 -730 -633 0
-738 -730 -634 0
-738 -730 -635 0
-738 -730 -641 0
-738 -730 -642 0
-738 -730 -643 0
-739 723 0
-739 726 0
-723 -726 739 0
-739 629 637 0
-739 629 645 0
-739 637 645 0
-739 730 626 627 634 635 642 643 0
-739 -730 -626 0
-739 -730 -627 0
-739 -730 -634 0
-739 -730 -635 0
-739 -730 -642 0
-739 -730 -643 0
-740 723 0
-740 727 0
-723 -727 740 0
-740 625 633 0
-740 625 641 0
-740 633 641 0
-740 730 627 635 643 0
-740 -730 -627 0
-740 -730 -635 0
-740 -730 -643 0
-741 723 0
-741 728 0
-723 -728 741 0
-741 626 634 0
-741 626 642 0
-741 634 642 0
-741 730 0
-742 724 0
-742 725 0
-724 -725 742 0
-742 730 633 634 635 641 642 643 649 650 651 0
-742 -730 -633 0
-742 -730 -634 0
-742 -730 -635 0
-742 -730 -641 0
-742 -730 -642 0
-742 -730 -643 0
-742 -730 -649 0
-742 -730 -650 0
-742 -730 -651 0
-743 724 0
-743 726 0
-724 -726 743 0
-743 637 645 0
-743 637 653 0
-743 645 653 0
-743 730 634 635 642 643 650 651 0
-743 -730 -634 0
-743 -730 -635 0
-743 -730 -642 0
-743 -730 -643 0
-743 -730 -650 0
-743 -730 -651 0
-744 724 0
-744 727 0
-724 -727 744 0
-744 633 641 0
-744 633 649 0
-744 641 649 0
-744 730 635 643 651 0
-744 -730 -635 0
-744 -730 -643 0
-744 -730 -651 0
-745 724 0
-745 728 0
-724 -728 745 0
-745 634 642 0
-745 634 650 0
-745 642 650 0
-745 730 0
-613 607 666 700 729 0
-607 613 0
-666 613 0
-700 613 0
-729 613 0
-607 -666 0
-607 -700 0
-607 -729 0
-666 -700 0
-666 -729 0
-700 -729 0
-608 612 668 702 731 0
-612 608 0
-668 608 0
-702 608 0
-731 608 0
-612 -668 0
-612 -702 0
-612 -731 0
-668 -702 0
-668 -731 0
-702 -731 0
-609 614 669 703 732 0
-614 609 0
-669 609 0
-703 609 0
-732 609 0
-614 -669 0
-614 -703 0
-614 -732 0
-669 -703 0
-669 -732 0
-703 -732 0
-610 615 670 704 733 0
-615 610 0
-670 610 0
-704 610 0
-733 610 0
-615 -670 0
-615 -704 0
-615 -733 0
-670 -704 0
-670 -733 0
-704 -733 0
-621 616 671 700 705 729 734 0
-616 621 0
-671 621 0
-700 621 0
-705 621 0
-729 621 0
-734 621 0
-616 -671 0
-616 -700 0
-616 -705 0
-616 -729 0
-616 -734 0
-671 -700 0
-671 -705 0
-671 -729 0
-671 -734 0
-700 -705 0
-700 -729 0
-700 -734 0
-705 -729 0
-705 -734 0
-729 -734 0
-617 620 672 702 706 731 735 0
-620 617 0
-672 617 0
-702 617 0
-706 617 0
-731 617 0
-735 617 0
-620 -672 0
-620 -702 0
-620 -706 0
-620 -731 0
-620 -735 0
-672 -702 0
-672 -706 0
-672 -731 0
-672 -735 0
-702 -706 0
-702 -731 0
-702 -735 0
-706 -731 0
-706 -735 0
-731 -735 0
-618 622 673 703 707 732 736 0
-622 618 0
-673 618 0
-703 618 0
-707 618 0
-732 618 0
-736 618 0
-622 -673 0
-622 -703 0
-622 -707 0
-622 -732 0
-622 -736 0
-673 -703 0
-673 -707 0
-673 -732 0
-673 -736 0
-703 -707 0
-703 -732 0
-703 -736 0
-707 -732 0
-707 -736 0
-732 -736 0
-619 623 674 704 708 733 737 0
-623 619 0
-674 619 0
-704 619 0
-708 619 0
-733 619 0
-737 619 0
-623 -674 0
-623 -704 0
-623 -708 0
-623 -733 0
-623 -737 0
-674 -704 0
-674 -708 0
-674 -733 0
-674 -737 0
-704 -708 0
-704 -733 0
-704 -737 0
-708 -733 0
-708 -737 0
-733 -737 0
-629 624 675 705 709 729 734 738 0
-624 629 0
-675 629 0
-705 629 0
-709 629 0
-729 629 0
-734 629 0
-738 629 0
-624 -675 0
-624 -705 0
-624 -709 0
-624 -729 0
-624 -734 0
-624 -738 0
-675 -705 0
-675 -709 0
-675 -729 0
-675 -734 0
-675 -738 0
-705 -709 0
-705 -729 0
-705 -734 0
-705 -738 0
-709 -729 0
-709 -734 0
-709 -738 0
-729 -734 0
-729 -738 0
-734 -738 0
-625 628 676 706 710 731 735 739 0
-628 625 0
-676 625 0
-706 625 0
-710 625 0
-731 625 0
-735 625 0
-739 625 0
-628 -676 0
-628 -706 0
-628 -710 0
-628 -731 0
-628 -735 0
-628 -739 0
-676 -706 0
-676 -710 0
-676 -731 0
-676 -735 0
-676 -739 0
-706 -710 0
-706 -731 0
-706 -735 0
-706 -739 0
-710 -731 0
-710 -735 0
-710 -739 0
-731 -735 0
-731 -739 0
-735 -739 0
-626 630 677 707 711 732 736 740 0
-630 626 0
-677 626 0
-707 626 0
-711 626 0
-732 626 0
-736 626 0
-740 626 0
-630 -677 0
-630 -707 0
-630 -711 0
-630 -732 0
-630 -736 0
-630 -740 0
-677 -707 0
-677 -711 0
-677 -732 0
-677 -736 0
-677 -740 0
-707 -711 0
-707 -732 0
-707 -736 0
-707 -740 0
-711 -732 0
-711 -736 0
-711 -740 0
-732 -736 0
-732 -740 0
-736 -740 0
-627 631 678 708 712 733 737 741 0
-631 627 0
-678 627 0
-708 627 0
-712 627 0
-733 627 0
-737 627 0
-741 627 0
-631 -678 0
-631 -708 0
-631 -712 0
-631 -733 0
-631 -737 0
-631 -741 0
-678 -708 0
-678 -712 0
-678 -733 0
-678 -737 0
-678 -741 0
-708 -712 0
-708 -733 0
-708 -737 0
-708 -741 0
-712 -733 0
-712 -737 0
-712 -741 0
-733 -737 0
-733 -741 0
-737 -741 0
-637 632 679 709 713 734 738 742 0
-632 637 0
-679 637 0
-709 637 0
-713 637 0
-734 637 0
-738 637 0
-742 637 0
-632 -679 0
-632 -709 0
-632 -713 0
-632 -734 0
-632 -738 0
-632 -742 0
-679 -709 0
-679 -713 0
-679 -734 0
-679 -738 0
-679 -742 0
-709 -713 0
-709 -734 0
-709 -738 0
-709 -742 0
-713 -734 0
-713 -738 0
-713 -742 0
-734 -738 0
-734 -742 0
-738 -742 0
-633 636 680 710 714 735 739 743 0
-636 633 0
-680 633 0
-710 633 0
-714 633 0
-735 633 0
-739 633 0
-743 633 0
-636 -680 0
-636 -710 0
-636 -714 0
-636 -735 0
-636 -739 0
-636 -743 0
-680 -710 0
-680 -714 0
-680 -735 0
-680 -739 0
-680 -743 0
-710 -714 0
-710 -735 0
-710 -739 0
-710 -743 0
-714 -735 0
-714 -739 0
-714 -743 0
-735 -739 0
-735 -743 0
-739 -743 0
-634 638 681 711 715 736 740 744 0
-638 634 0
-681 634 0
-711 634 0
-715 634 0
-736 634 0
-740 634 0
-744 634 0
-638 -681 0
-638 -711 0
-638 -715 0
-638 -736 0
-638 -740 0
-638 -744 0
-681 -711 0
-681 -715 0
-681 -736 0
-681 -740 0
-681 -744 0
-711 -715 0
-711 -736 0
-711 -740 0
-711 -744 0
-715 -736 0
-715 -740 0
-715 -744 0
-736 -740 0
-736 -744 0
-740 -744 0
-635 639 682 712 716 737 741 745 0
-639 635 0
-682 635 0
-712 635 0
-716 635 0
-737 635 0
-741 635 0
-745 635 0
-639 -682 0
-639 -712 0
-639 -716 0
-639 -737 0
-639 -741 0
-639 -745 0
-682 -712 0
-682 -716 0
-682 -737 0
-682 -741 0
-682 -745 0
-712 -716 0
-712 -737 0
-712 -741 0
-712 -745 0
-716 -737 0
-716 -741 0
-716 -745 0
-737 -741 0
-737 -745 0
-741 -745 0
-645 640 683 713 717 738 742 0
-640 645 0
-683 645 0
-713 645 0
-717 645 0
-738 645 0
-742 645 0
-640 -683 0
-640 -713 0
-640 -717 0
-640 -738 0
-640 -742 0
-683 -713 0
-683 -717 0
-683 -738 0
-683 -742 0
-713 -717 0
-713 -738 0
-713 -742 0
-717 -738 0
-717 -742 0
-738 -742 0
-641 644 684 714 718 739 743 0
-644 641 0
-684 641 0
-714 641 0
-718 641 0
-739 641 0
-743 641 0
-644 -684 0
-644 -714 0
-644 -718 0
-644 -739 0
-644 -743 0
-684 -714 0
-684 -718 0
-684 -739 0
-684 -743 0
-714 -718 0
-714 -739 0
-714 -743 0
-718 -739 0
-718 -743 0
-739 -743 0
-642 646 685 715 719 740 744 0
-646 642 0
-685 642 0
-715 642 0
-719 642 0
-740 642 0
-744 642 0
-646 -685 0
-646 -715 0
-646 -719 0
-646 -740 0
-646 -744 0
-685 -715 0
-685 -719 0
-685 -740 0
-685 -744 0
-715 -719 0
-715 -740 0
-715 -744 0
-719 -740 0
-719 -744 0
-740 -744 0
-643 647 686 716 720 741 745 0
-647 643 0
-686 643 0
-716 643 0
-720 643 0
-741 643 0
-745 643 0
-647 -686 0
-647 -716 0
-647 -720 0
-647 -741 0
-647 -745 0
-686 -716 0
-686 -720 0
-686 -741 0
-686 -745 0
-716 -720 0
-716 -741 0
-716 -745 0
-720 -741 0
-720 -745 0
-741 -745 0
-653 648 687 717 742 0
-648 653 0
-687 653 0
-717 653 0
-742 653 0
-648 -687 0
-648 -717 0
-648 -742 0
-687 -717 0
-687 -742 0
-717 -742 0
-649 652 688 718 743 0
-652 649 0
-688 649 0
-718 649 0
-743 649 0
-652 -688 0
-652 -718 0
-652 -743 0
-688 -718 0
-688 -743 0
-718 -743 0
-650 654 689 719 744 0
-654 650 0
-689 650 0
-719 650 0
-744 650 0
-654 -689 0
-654 -719 0
-654 -744 0
-689 -719 0
-689 -744 0
-719 -744 0
-651 655 690 720 745 0
-655 651 0
-690 651 0
-720 651 0
-745 651 0
-655 -690 0
-655 -720 0
-655 -745 0
-690 -720 0
-690 -745 0
-720 -745 0
4 0
7 0
65 0
66 0
95 0
100 0
128 0
130 0
597 0
604 0
661 0
662 0
691 0
696 0
723 0
725 0
-746 15 0
-746 150 0
-746 164 0
-746 156 0
-746 -1 -7 0
-747 15 0
-747 151 0
-747 164 0
-747 156 0
-747 -2 -7 0
-748 15 0
-748 152 0
-748 164 0
-748 156 0
-748 -3 -7 0
-749 15 0
-749 153 0
-749 164 0
-749 156 0
-749 -4 -7 0
-750 15 0
-750 154 0
-750 164 0
-750 156 0
-750 -5 -7 0
-751 15 0
-751 155 0
-751 164 0
-751 156 0
-751 -6 -7 0
-752 15 0
-752 150 0
-752 164 0
-752 60 0
-752 -69 0
-752 -220 0
-752 -66 157 0
-752 -66 -1 -8 0
-752 -67 158 0
-752 -67 -1 -9 0
-752 -68 159 0
-752 -68 -1 -10 0
-753 15 0
-753 151 0
-753 164 0
-753 61 0
-753 -69 0
-753 -220 0
-753 -66 157 0
-753 -66 -2 -8 0
-753 -67 158 0
-753 -67 -2 -9 0
-753 -68 159 0
-753 -68 -2 -10 0
-754 15 0
-754 152 0
-754 164 0
-754 62 0
-754 -69 0
-754 -220 0
-754 -66 157 0
-754 -66 -3 -8 0
-754 -67 158 0
-754 -67 -3 -9 0
-754 -68 159 0
-754 -68 -3 -10 0
-755 15 0
-755 153 0
-755 164 0
-755 63 0
-755 -69 0
-755 -220 0
-755 -66 157 0
-755 -66 -4 -8 0
-755 -67 158 0
-755 -67 -4 -9 0
-755 -68 159 0
-755 -68 -4 -10 0
-756 15 0
-756 154 0
-756 164 0
-756 64 0
-756 -69 0
-756 -220 0
-756 -66 157 0
-756 -66 -5 -8 0
-756 -67 158 0
-756 -67 -5 -9 0
-756 -68 159 0
-756 -68 -5 -10 0
-757 15 0
-757 155 0
-757 164 0
-757 65 0
-757 -69 0
-757 -220 0
-757 -66 157 0
-757 -66 -6 -8 0
-757 -67 158 0
-757 -67 -6 -9 0
-757 -68 159 0
-757 -68 -6 -10 0
-758 15 0
-758 150 0
-758 164 0
-758 95 0
-758 -103 0
-758 -254 0
-758 -100 157 0
-758 -100 -1 -8 0
-758 -101 158 0
-758 -101 -1 -9 0
-758 -102 159 0
-758 -102 -1 -10 0
-759 15 0
-759 151 0
-759 164 0
-759 95 96 0
-759 -103 0
-759 -254 0
-759 -100 157 0
-759 -100 -2 -8 0
-759 -101 158 0
-759 -101 -2 -9 0
-759 -102 159 0
-759 -102 -2 -10 0
-760 15 0
-760 152 0
-760 164 0
-760 96 97 0
-760 -103 0
-760 -254 0
-760 -100 157 0
-760 -100 -3 -8 0
-760 -101 158 0
-760 -101 -3 -9 0
-760 -102 159 0
-760 -102 -3 -10 0
-761 15 0
-761 153 0
-761 164 0
-761 97 98 0
-761 -103 0
-761 -254 0
-761 -100 157 0
-761 -100 -4 -8 0
-761 -101 158 0
-761 -101 -4 -9 0
-761 -102 159 0
-761 -102 -4 -10 0
-762 15 0
-762 154 0
-762 164 0
-762 98 99 0
-762 -103 0
-762 -254 0
-762 -100 157 0
-762 -100 -5 -8 0
-762 -101 158 0
-762 -101 -5 -9 0
-762 -102 159 0
-762 -102 -5 -10 0
-763 15 0
-763 155 0
-763 164 0
-763 99 0
-763 -103 0
-763 -254 0
-763 -100 157 0
-763 -100 -6 -8 0
-763 -101 158 0
-763 -101 -6 -9 0
-763 -102 159 0
-763 -102 -6 -10 0
-764 15 0
-764 150 0
-764 164 0
-764 125 0
-764 -132 0
-764 -283 0
-764 -129 157 0
-764 -129 -1 -8 0
-764 -130 158 0
-764 -130 -1 -9 0
-764 -131 159 0
-764 -131 -1 -10 0
-765 15 0
-765 151 0
-765 164 0
-765 125 126 0
-765 -132 0
-765 -283 0
-765 -129 157 0
-765 -129 -2 -8 0
-765 -130 158 0
-765 -130 -2 -9 0
-765 -131 159 0
-765 -131 -2 -10 0
-766 15 0
-766 152 0
-766 164 0
-766 125 126 127 0
-766 -132 0
-766 -283 0
-766 -129 157 0
-766 -129 -3 -8 0
-766 -130 158 0
-766 -130 -3 -9 0
-766 -131 159 0
-766 -131 -3 -10 0
-767 15 0
-767 153 0
-767 164 0
-767 126 127 128 0
-767 -132 0
-767 -283 0
-767 -129 157 0
-767 -129 -4 -8 0
-767 -130 158 0
-767 -130 -4 -9 0
-767 -131 159 0
-767 -131 -4 -10 0
-768 15 0
-768 154 0
-768 164 0
-768 127 128 0
-768 -132 0
-768 -283 0
-768 -129 157 0
-768 -129 -5 -8 0
-768 -130 158 0
-768 -130 -5 -9 0
-768 -131 159 0
-768 -131 -5 -10 0
-769 15 0
-769 155 0
-769 164 0
-769 128 0
-769 -132 0
-769 -283 0
-769 -129 157 0
-769 -129 -6 -8 0
-769 -130 158 0
-769 -130 -6 -9 0
-769 -131 159 0
-769 -131 -6 -10 0
-770 71 0
-770 209 0
-770 220 0
-770 215 0
-770 -60 -66 0
-771 71 0
-771 210 0
-771 220 0
-771 215 0
-771 -61 -66 0
-772 71 0
-772 211 0
-772 220 0
-772 215 0
-772 -62 -66 0
-773 71 0
-773 212 0
-773 220 0
-773 215 0
-773 -63 -66 0
-774 71 0
-774 213 0
-774 220 0
-774 215 0
-774 -64 -66 0
-775 71 0
-775 214 0
-775 220 0
-775 215 0
-775 -65 -66 0
-776 71 0
-776 209 0
-776 220 0
-776 1 0
-776 -10 0
-776 -164 0
-776 -7 216 0
-776 -7 -60 -67 0
-776 -8 217 0
-776 -8 -60 -68 0
-776 -9 218 0
-776 -9 -60 -69 0
-777 71 0
-777 210 0
-777 220 0
-777 2 0
-777 -10 0
-777 -164 0
-777 -7 216 0
-777 -7 -61 -67 0
-777 -8 217 0
-777 -8 -61 -68 0
-777 -9 218 0
-777 -9 -61 -69 0
-778 71 0
-778 211 0
-778 220 0
-778 3 0
-778 -10 0
-778 -164 0
-778 -7 216 0
-778 -7 -62 -67 0
-778 -8 217 0
-778 -8 -62 -68 0
-778 -9 218 0
-778 -9 -62 -69 0
-779 71 0
-779 212 0
-779 220 0
-779 4 0
-779 -10 0
-779 -164 0
-779 -7 216 0
-779 -7 -63 -67 0
-779 -8 217 0
-779 -8 -63 -68 0
-779 -9 218 0
-779 -9 -63 -69 0
-780 71 0
-780 213 0
-780 220 0
-780 5 0
-780 -10 0
-780 -164 0
-780 -7 216 0
-780 -7 -64 -67 0
-780 -8 217 0
-780 -8 -64 -68 0
-780 -9 218 0
-780 -9 -64 -69 0
-781 71 0
-781 214 0
-781 220 0
-781 6 0
-781 -10 0
-781 -164 0
-781 -7 216 0
-781 -7 -65 -67 0
-781 -8 217 0
-781 -8 -65 -68 0
-781 -9 218 0
-781 -9 -65 -69 0
-782 71 0
-782 209 0
-782 220 0
-782 95 0
-782 -103 0
-782 -254 0
-782 -100 216 0
-782 -100 -60 -67 0
-782 -101 217 0
-782 -101 -60 -68 0
-782 -102 218 0
-782 -102 -60 -69 0
-783 71 0
-783 210 0
-783 220 0
-783 95 96 0
-783 -103 0
-783 -254 0
-783 -100 216 0
-783 -100 -61 -67 0
-783 -101 217 0
-783 -101 -61 -68 0
-783 -102 218 0
-783 -102 -61 -69 0
-784 71 0
-784 211 0
-784 220 0
-784 96 97 0
-784 -103 0
-784 -254 0
-784 -100 216 0
-784 -100 -62 -67 0
-784 -101 217 0
-784 -101 -62 -68 0
-784 -102 218 0
-784 -102 -62 -69 0
-785 71 0
-785 212 0
-785 220 0
-785 97 98 0
-785 -103 0
-785 -254 0
-785 -100 216 0
-785 -100 -63 -67 0
-785 -101 217 0
-785 -101 -63 -68 0
-785 -102 218 0
-785 -102 -63 -69 0
-786 71 0
-786 213 0
-786 220 0
-786 98 99 0
-786 -103 0
-786 -254 0
-786 -100 216 0
-786 -100 -64 -67 0
-786 -101 217 0
-786 -101 -64 -68 0
-786 -102 218 0
-786 -102 -64 -69 0
-787 71 0
-787 214 0
-787 220 0
-787 99 0
-787 -103 0
-787 -254 0
-787 -100 216 0
-787 -100 -65 -67 0
-787 -101 217 0
-787 -101 -65 -68 0
-787 -102 218 0
-787 -102 -65 -69 0
-788 71 0
-788 209 0
-788 220 0
-788 125 0
-788 -132 0
-788 -283 0
-788 -129 216 0
-788 -129 -60 -67 0
-788 -130 217 0
-788 -130 -60 -68 0
-788 -131 218 0
-788 -131 -60 -69 0
-789 71 0
-789 210 0
-789 220 0
-789 125 126 0
-789 -132 0
-789 -283 0
-789 -129 216 0
-789 -129 -61 -67 0
-789 -130 217 0
-789 -130 -61 -68 0
-789 -131 218 0
-789 -131 -61 -69 0
-790 71 0
-790 211 0
-790 220 0
-790 125 126 127 0
-790 -132 0
-790 -283 0
-790 -129 216 0
-790 -129 -62 -67 0
-790 -130 217 0
-790 -130 -62 -68 0
-790 -131 218 0
-790 -131 -62 -69 0
-791 71 0
-791 212 0
-791 220 0
-791 126 127 128 0
-791 -132 0
-791 -283 0
-791 -129 216 0
-791 -129 -63 -67 0
-791 -130 217 0
-791 -130 -63 -68 0
-791 -131 218 0
-791 -131 -63 -69 0
-792 71 0
-792 213 0
-792 220 0
-792 127 128 0
-792 -132 0
-792 -283 0
-792 -129 216 0
-792 -129 -64 -67 0
-792 -130 217 0
-792 -130 -64 -68 0
-792 -131 218 0
-792 -131 -64 -69 0
-793 71 0
-793 214 0
-793 220 0
-793 128 0
-793 -132 0
-793 -283 0
-793 -129 216 0
-793 -129 -65 -67 0
-793 -130 217 0
-793 -130 -65 -68 0
-793 -131 218 0
-793 -131 -65 -69 0
-794 105 0
-794 244 0
-794 254 0
-794 249 0
-794 -95 -100 0
-795 105 0
-795 245 0
-795 254 0
-795 249 0
-795 -96 -100 0
-796 105 0
-796 246 0
-796 254 0
-796 249 0
-796 -97 -100 0
-797 105 0
-797 247 0
-797 254 0
-797 249 0
-797 -98 -100 0
-798 105 0
-798 248 0
-798 254 0
-798 249 0
-798 -99 -100 0
-799 105 0
-799 244 0
-799 254 0
-799 1 2 0
-799 -10 0
-799 -164 0
-799 -7 250 0
-799 -7 -95 -101 0
-799 -8 251 0
-799 -8 -95 -102 0
-799 -9 252 0
-799 -9 -95 -103 0
-800 105 0
-800 245 0
-800 254 0
-800 2 3 0
-800 -10 0
-800 -164 0
-800 -7 250 0
-800 -7 -96 -101 0
-800 -8 251 0
-800 -8 -96 -102 0
-800 -9 252 0
-800 -9 -96 -103 0
-801 105 0
-801 246 0
-801 254 0
-801 3 4 0
-801 -10 0
-801 -164 0
-801 -7 250 0
-801 -7 -97 -101 0
-801 -8 251 0
-801 -8 -97 -102 0
-801 -9 252 0
-801 -9 -97 -103 0
-802 105 0
-802 247 0
-802 254 0
-802 4 5 0
-802 -10 0
-802 -164 0
-802 -7 250 0
-802 -7 -98 -101 0
-802 -8 251 0
-802 -8 -98 -102 0
-802 -9 252 0
-802 -9 -98 -103 0
-803 105 0
-803 248 0
-803 254 0
-803 5 6 0
-803 -10 0
-803 -164 0
-803 -7 250 0
-803 -7 -99 -101 0
-803 -8 251 0
-803 -8 -99 -102 0
-803 -9 252 0
-803 -9 -99 -103 0
-804 105 0
-804 244 0
-804 254 0
-804 60 61 0
-804 -69 0
-804 -220 0
-804 -66 250 0
-804 -66 -95 -101 0
-804 -67 251 0
-804 -67 -95 -102 0
-804 -68 252 0
-804 -68 -95 -103 0
-805 105 0
-805 245 0
-805 254 0
-805 61 62 0
-805 -69 0
-805 -220 0
-805 -66 250 0
-805 -66 -96 -101 0
-805 -67 251 0
-805 -67 -96 -102 0
-805 -68 252 0
-805 -68 -96 -103 0
-806 105 0
-806 246 0
-806 254 0
-806 62 63 0
-806 -69 0
-806 -220 0
-806 -66 250 0
-806 -66 -97 -101 0
-806 -67 251 0
-806 -67 -97 -102 0
-806 -68 252 0
-806 -68 -97 -103 0
-807 105 0
-807 247 0
-807 254 0
-807 63 64 0
-807 -69 0
-807 -220 0
-807 -66 250 0
-807 -66 -98 -101 0
-807 -67 251 0
-807 -67 -98 -102 0
-807 -68 252 0
-807 -68 -98 -103 0
-808 105 0
-808 248 0
-808 254 0
-808 64 65 0
-808 -69 0
-808 -220 0
-808 -66 250 0
-808 -66 -99 -101 0
-808 -67 251 0
-808 -67 -99 -102 0
-808 -68 252 0
-808 -68 -99 -103 0
-809 105 0
-809 244 0
-809 254 0
-809 125 126 0
-809 -132 0
-809 -283 0
-809 -129 250 0
-809 -129 -95 -101 0
-809 -130 251 0
-809 -130 -95 -102 0
-809 -131 252 0
-809 -131 -95 -103 0
-810 105 0
-810 245 0
-810 254 0
-810 125 126 127 0
-810 -132 0
-810 -283 0
-810 -129 250 0
-810 -129 -96 -101 0
-810 -130 251 0
-810 -130 -96 -102 0
-810 -131 252 0
-810 -131 -96 -103 0
-811 105 0
-811 246 0
-811 254 0
-811 125 126 127 128 0
-811 -132 0
-811 -283 0
-811 -129 250 0
-811 -129 -97 -101 0
-811 -130 251 0
-811 -130 -97 -102 0
-811 -131 252 0
-811 -131 -97 -103 0
-812 105 0
-812 247 0
-812 254 0
-812 126 127 128 0
-812 -132 0
-812 -283 0
-812 -129 250 0
-812 -129 -98 -101 0
-812 -130 251 0
-812 -130 -98 -102 0
-812 -131 252 0
-812 -131 -98 -103 0
-813 105 0
-813 248 0
-813 254 0
-813 127 128 0
-813 -132 0
-813 -283 0
-813 -129 250 0
-813 -129 -99 -101 0
-813 -130 251 0
-813 -130 -99 -102 0
-813 -131 252 0
-813 -131 -99 -103 0
-814 134 0
-814 274 0
-814 283 0
-814 278 0
-814 -125 -129 0
-815 134 0
-815 275 0
-815 283 0
-815 278 0
-815 -126 -129 0
-816 134 0
-816 276 0
-816 283 0
-816 278 0
-816 -127 -129 0
-817 134 0
-817 277 0
-817 283 0
-817 278 0
-817 -128 -129 0
-818 134 0
-818 274 0
-818 283 0
-818 1 2 3 0
-818 -10 0
-818 -164 0
-818 -7 279 0
-818 -7 -125 -130 0
-818 -8 280 0
-818 -8 -125 -131 0
-818 -9 281 0
-818 -9 -125 -132 0
-819 134 0
-819 275 0
-819 283 0
-819 2 3 4 0
-819 -10 0
-819 -164 0
-819 -7 279 0
-819 -7 -126 -130 0
-819 -8 280 0
-819 -8 -126 -131 0
-819 -9 281 0
-819 -9 -126 -132 0
-820 134 0
-820 276 0
-820 283 0
-820 3 4 5 0
-820 -10 0
-820 -164 0
-820 -7 279 0
-820 -7 -127 -130 0
-820 -8 280 0
-820 -8 -127 -131 0
-820 -9 281 0
-820 -9 -127 -132 0
-821 134 0
-821 277 0
-821 283 0
-821 4 5 6 0
-821 -10 0
-821 -164 0
-821 -7 279 0
-821 -7 -128 -130 0
-821 -8 280 0
-821 -8 -128 -131 0
-821 -9 281 0
-821 -9 -128 -132 0
-822 134 0
-822 274 0
-822 283 0
-822 60 61 62 0
-822 -69 0
-822 -220 0
-822 -66 279 0
-822 -66 -125 -130 0
-822 -67 280 0
-822 -67 -125 -131 0
-822 -68 281 0
-822 -68 -125 -132 0
-823 134 0
-823 275 0
-823 283 0
-823 61 62 63 0
-823 -69 0
-823 -220 0
-823 -66 279 0
-823 -66 -126 -130 0
-823 -67 280 0
-823 -67 -126 -131 0
-823 -68 281 0
-823 -68 -126 -132 0
-824 134 0
-824 276 0
-824 283 0
-824 62 63 64 0
-824 -69 0
-824 -220 0
-824 -66 279 0
-824 -66 -127 -130 0
-824 -67 280 0
-824 -67 -127 -131 0
-824 -68 281 0
-824 -68 -127 -132 0
-825 134 0
-825 277 0
-825 283 0
-825 63 64 65 0
-825 -69 0
-825 -220 0
-825 -66 279 0
-825 -66 -128 -130 0
-825 -67 280 0
-825 -67 -128 -131 0
-825 -68 281 0
-825 -68 -128 -132 0
-826 134 0
-826 274 0
-826 283 0
-826 95 96 97 0
-826 -103 0
-826 -254 0
-826 -100 279 0
-826 -100 -125 -130 0
-826 -101 280 0
-826 -101 -125 -131 0
-826 -102 281 0
-826 -102 -125 -132 0
-827 134 0
-827 275 0
-827 283 0
-827 95 96 97 98 0
-827 -103 0
-827 -254 0
-827 -100 279 0
-827 -100 -126 -130 0
-827 -101 280 0
-827 -101 -126 -131 0
-827 -102 281 0
-827 -102 -126 -132 0
-828 134 0
-828 276 0
-828 283 0
-828 96 97 98 99 0
-828 -103 0
-828 -254 0
-828 -100 279 0
-828 -100 -127 -130 0
-828 -101 280 0
-828 -101 -127 -131 0
-828 -102 281 0
-828 -102 -127 -132 0
-829 134 0
-829 277 0
-829 283 0
-829 97 98 99 0
-829 -103 0
-829 -254 0
-829 -100 279 0
-829 -100 -128 -130 0
-829 -101 280 0
-829 -101 -128 -131 0
-829 -102 281 0
-829 -102 -128 -132 0
746 747 748 749 750 751 752 753 754 755 756 757 758 759 760 761 762 763 764 765 766 767 768 769 770 771 772 773 774 775 776 777 778 779 780 781 782 783 784 785 786 787 788 789 790 791 792 793 794 795 796 797 798 799 800 801 802 803 804 805 806 807 808 809 810 811 812 813 814 815 816 817 818 819 820 821 822 823 824 825 826 827 828 829 0
-746 -747 0
-746 -748 0
-746 -749 0
-746 -750 0
-746 -751 0
-746 -752 0
-746 -753 0
-746 -754 0
-746 -755 0
-746 -756 0
-746 -757 0
-746 -758 0
-746 -759 0
-746 -760 0
-746 -761 0
-746 -762 0
-746 -763 0
-746 -764 0
-746 -765 0
-746 -766 0
-746 -767 0
-746 -768 0
-746 -769 0
-746 -770 0
-746 -771 0
-746 -772 0
-746 -773 0
-746 -774 0
-746 -775 0
-746 -776 0
-746 -777 0
-746 -778 0
-746 -779 0
-746 -780 0
-746 -781 0
-746 -782 0
-746 -783 0
-746 -784 0
-746 -785 0
-746 -786 0
-746 -787 0
-746 -788 0
-746 -789 0
-746 -790 0
-746 -791 0
-746 -792 0
-746 -793 0
-746 -794 0
-746 -795 0
-746 -796 0
-746 -797 0
-746 -798 0
-746 -799 0
-746 -800 0
-746 -801 0
-746 -802 0
-746 -803 0
-746 -804 0
-746 -805 0
-746 -806 0
-746 -807 0
-746 -808 0
-746 -809 0
-746 -810 0
-746 -811 0
-746 -812 0
-746 -813 0
-746 -814 0
-746 -815 0
-746 -816 0
-746 -817 0
-746 -818 0
-746 -819 0
-746 -820 0
-746 -821 0
-746 -822 0
-746 -823 0
-746 -824 0
-746 -825 0
-746 -826 0
-746 -827 0
-746 -828 0
-746 -829 0
-747 -748 0
-747 -749 0
-747 -750 0
-747 -751 0
-747 -752 0
-747 -753 0
-747 -754 0
-747 -755 0
-747 -756 0
-747 -757 0
-747 -758 0
-747 -759 0
-747 -760 0
-747 -761 0
-747 -762 0
-747 -763 0
-747 -764 0
-747 -765 0
-747 -766 0
-747 -767 0
-747 -768 0
-747 -769 0
-747 -770 0
-747 -771 0
-747 -772 0
-747 -773 0
-747 -774 0
-747 -775 0
-747 -776 0
-747 -777 0
-747 -778 0
-747 -779 0
-747 -780 0
-747 -781 0
-747 -782 0
-747 -783 0
-747 -784 0
-747 -785 0
-747 -786 0
-747 -787 0
-747 -788 0
-747 -789 0
-747 -790 0
-747 -791 0
-747 -792 0
-747 -793 0
-747 -794 0
-747 -795 0
-747 -796 0
-747 -797 0
-747 -798 0
-747 -799 0
-747 -800 0
-747 -801 0
-747 -802 0
-747 -803 0
-747 -804 0
-747 -805 0
-747 -806 0
-747 -807 0
-747 -808 0
-747 -809 0
-747 -810 0
-747 -811 0
-747 -812 0
-747 -813 0
-747 -814 0
-747 -815 0
-747 -816 0
-747 -817 0
-747 -818 0
-747 -819 0
-747 -820 0
-747 -821 0
-747 -822 0
-747 -823 0
-747 -824 0
-747 -825 0
-747 -826 0
-747 -827 0
-747 -828 0
-747 -829 0
-748 -749 0
-748 -750 0
-748 -751 0
-748 -752 0
-748 -753 0
-748 -754 0
-748 -755 0
-748 -756 0
-748 -757 0
-748 -758 0
-748 -759 0
-748 -760 0
-748 -761 0
-748 -762 0
-748 -763 0
-748 -764 0
-748 -765 0
-748 -766 0
-748 -767 0
-748 -768 0
-748 -769 0
-748 -770 0
-748 -771 0
-748 -772 0
-748 -773 0
-748 -774 0
-748 -775 0
-748 -776 0
-748 -777 0
-748 -778 0
-748 -779 0
-748 -780 0
-748 -781 0
-748 -782 0
-748 -783 0
-748 -784 0
-748 -785 0
-748 -786 0
-748 -787 0
-748 -788 0
-748 -789 0
-748 -790 0
-748 -791 0
-748 -792 0
-748 -793 0
-748 -794 0
-748 -795 0
-748 -796 0
-748 -797 0
-748 -798 0
-748 -799 0
-748 -800 0
-748 -801 0
-748 -802 0
-748 -803 0
-748 -804 0
-748 -805 0
-748 -806 0
-748 -807 0
-748 -808 0
-748 -809 0
-748 -810 0
-748 -811 0
-748 -812 0
-748 -813 0
-748 -814 0
-748 -815 0
-748 -816 0
-748 -817 0
-748 -818 0
-748 -819 0
-748 -820 0
-748 -821 0
-748 -822 0
-748 -823 0
-748 -824 0
-748 -825 0
-748 -826 0
-748 -827 0
-748 -828 0
-748 -829 0
-749 -750 0
-749 -751 0
-749 -752 0
-749 -753 0
-749 -754 0
-749 -755 0
-749 -756 0
-749 -757 0
-749 -758 0
-749 -759 0
-749 -760 0
-749 -761 0
-749 -762 0
-749 -763 0
-749 -764 0
-749 -765 0
-749 -766 0
-749 -767 0
-749 -768 0
-749 -769 0
-749 -770 0
-749 -771 0
-749 -772 0
-749 -773 0
-749 -774 0
-749 -775 0
-749 -776 0
-749 -777 0
-749 -778 0
-749 -779 0
-749 -780 0
-749 -781 0
-749 -782 0
-749 -783 0
-749 -784 0
-749 -785 0
-749 -786 0
-749 -787 0
-749 -788 0
-749 -789 0
-749 -790 0
-749 -791 0
-749 -792 0
-749 -793 0
-749 -794 0
-749 -795 0
-749 -796 0
-749 -797 0
-749 -798 0
-749 -799 0
-749 -800 0
-749 -801 0
-749 -802 0
-749 -803 0
-749 -804 0
-749 -805 0
-749 -806 0
-749 -807 0
-749 -808 0
-749 -809 0
-749 -810 0
-749 -811 0
-749 -812 0
-749 -813 0
-749 -814 0
-749 -815 0
-749 -816 0
-749 -817 0
-749 -818 0
-749 -819 0
-749 -820 0
-749 -821 0
-749 -822 0
-749 -823 0
-749 -824 0
-749 -825 0
-749 -826 0
-749 -827 0
-749 -828 0
-749 -829 0
-750 -751 0
-750 -752 0
-750 -753 0
-750 -754 0
-750 -755 0
-750 -756 0
-750 -757 0
-750 -758 0
-750 -759 0
-750 -760 0
-750 -761 0
-750 -762 0
-750 -763 0
-750 -764 0
-750 -765 0
-750 -766 0
-750 -767 0
-750 -768 0
-750 -769 0
-750 -770 0
-750 -771 0
-750 -772 0
-750 -773 0
-750 -774 0
-750 -775 0
-750 -776 0
-750 -777 0
-750 -778 0
-750 -779 0
-750 -780 0
-750 -781 0
-750 -782 0
-750 -783 0
-750 -784 0
-750 -785 0
-750 -786 0
-750 -787 0
-750 -788 0
-750 -789 0
-750 -790 0
-750 -791 0
-750 -792 0
-750 -793 0
-750 -794 0
-750 -795 0
-750 -796 0
-750 -797 0
-750 -798 0
-750 -799 0
-750 -800 0
-750 -801 0
-750 -802 0
-750 -803 0
-750 -804 0
-750 -805 0
-750 -806 0
-750 -807 0
-750 -808 0
-750 -809 0
-750 -810 0
-750 -811 0
-750 -812 0
-750 -813 0
-750 -814 0
-750 -815 0
-750 -816 0
-750 -817 0
-750 -818 0
-750 -819 0
-750 -820 0
-750 -821 0
-750 -822 0
-750 -823 0
-750 -824 0
-750 -825 0
-750 -826 0
-750 -827 0
-750 -828 0
-750 -829 0
-751 -752 0
-751 -753 0
-751 -754 0
-751 -755 0
-751 -756 0
-751 -757 0
-751 -758 0
-751 -759 0
-751 -760 0
-751 -761 0
-751 -762 0
-751 -763 0
-751 -764 0
-751 -765 0
-751 -766 0
-751 -767 0
-751 -768 0
-751 -769 0
-751 -770 0
-751 -771 0
-751 -772 0
-751 -773 0
-751 -774 0
-751 -775 0
-751 -776 0
-751 -777 0
-751 -778 0
-751 -779 0
-751 -780 0
-751 -781 0
-751 -782 0
-751 -783 0
-751 -784 0
-751 -785 0
-751 -786 0
-751 -787 0
-751 -788 0
-751 -789 0
-751 -790 0
-751 -791 0
-751 -792 0
-751 -793 0
-751 -794 0
-751 -795 0
-751 -796 0
-751 -797 0
-751 -798 0
-751 -799 0
-751 -800 0
-751 -801 0
-751 -802 0
-751 -803 0
-751 -804 0
-751 -805 0
-751 -806 0
-751 -807 0
-751 -808 0
-751 -809 0
-751 -810 0
-751 -811 0
-751 -812 0
-751 -813 0
-751 -814 0
-751 -815 0
-751 -816 0
-751 -817 0
-751 -818 0
-751 -819 0
-751 -820 0
-751 -821 0
-751 -822 0
-751 -823 0
-751 -824 0
-751 -825 0
-751 -826 0
-751 -827 0
-751 -828 0
-751 -829 0
-752 -753 0
-752 -754 0
-752 -755 0
-752 -756 0
-752 -757 0
-752 -758 0
-752 -759 0
-752 -760 0
-752 -761 0
-752 -762 0
-752 -763 0
-752 -764 0
-752 -765 0
-752 -766 0
-752 -767 0
-752 -768 0
-752 -769 0
-752 -770 0
-752 -771 0
-752 -772 0
-752 -773 0
-752 -774 0
-752 -775 0
-752 -776 0
-752 -777 0
-752 -778 0
-752 -779 0
-752 -780 0
-752 -781 0
-752 -782 0
-752 -783 0
-752 -784 0
-752 -785 0
-752 -786 0
-752 -787 0
-752 -788 0
-752 -789 0
-752 -790 0
-752 -791 0
-752 -792 0
-752 -793 0
-752 -794 0
-752 -795 0
-752 -796 0
-752 -797 0
-752 -798 0
-752 -799 0
-752 -800 0
-752 -801 0
-752 -802 0
-752 -803 0
-752 -804 0
-752 -805 0
-752 -806 0
-752 -807 0
-752 -808 0
-752 -809 0
-752 -810 0
-752 -811 0
-752 -812 0
-752 -813 0
-752 -814 0
-752 -815 0
-752 -816 0
-752 -817 0
-752 -818 0
-752 -819 0
-752 -820 0
-752 -821 0
-752 -822 0
-752 -823 0
-752 -824 0
-752 -825 0
-752 -826 0
-752 -827 0
-752 -828 0
-752 -829 0
-753 -754 0
-753 -755 0
-753 -756 0
-753 -757 0
-753 -758 0
-753 -759 0
-753 -760 0
-753 -761 0
-753 -762 0
-753 -763 0
-753 -764 0
-753 -765 0
-753 -766 0
-753 -767 0
-753 -768 0
-753 -769 0
-753 -770 0
-753 -771 0
-753 -772 0
-753 -773 0
-753 -774 0
-753 -775 0
-753 -776 0
-753 -777 0
-753 -778 0
-753 -779 0
-753 -780 0
-753 -781 0
-753 -782 0
-753 -783 0
-753 -784 0
-753 -785 0
-753 -786 0
-753 -787 0
-753 -788 0
-753 -789 0
-753 -790 0
-753 -791 0
-753 -792 0
-753 -793 0
-753 -794 0
-753 -795 0
-753 -796 0
-753 -797 0
-753 -798 0
-753 -799 0
-753 -800 0
-753 -801 0
-753 -802 0
-753 -803 0
-753 -804 0
-753 -805 0
-753 -806 0
-753 -807 0
-753 -808 0
-753 -809 0
-753 -810 0
-753 -811 0
-753 -812 0
-753 -813 0
-753 -814 0
-753 -815 0
-753 -816 0
-753 -817 0
-753 -818 0
-753 -819 0
-753 -820 0
-753 -821 0
-753 -822 0
-753 -823 0
-753 -824 0
-753 -825 0
-753 -826 0
-753 -827 0
-753 -828 0
-753 -829 0
-754 -755 0
-754 -756 0
-754 -757 0
-754 -758 0
-754 -759 0
-754 -760 0
-754 -761 0
-754 -762 0
-754 -763 0
-754 -764 0
-754 -765 0
-754 -766 0
-754 -767 0
-754 -768 0
-754 -769 0
-754 -770 0
-754 -771 0
-754 -772 0
-754 -773 0
-754 -774 0
-754 -775 0
-754 -776 0
-754 -777 0
-754 -778 0
-754 -779 0
-754 -780 0
-754 -781 0
-754 -782 0
-754 -783 0
-754 -784 0
-754 -785 0
-754 -786 0
-754 -787 0
-754 -788 0
-754 -789 0
-754 -790 0
-754 -791 0
-754 -792 0
-754 -793 0
-754 -794 0
-754 -795 0
-754 -796 0
-754 -797 0
-754 -798 0
-754 -799 0
-754 -800 0
-754 -801 0
-754 -802 0
-754 -803 0
-754 -804 0
-754 -805 0
-754 -806 0
-754 -807 0
-754 -808 0
-754 -809 0
-754 -810 0
-754 -811 0
-754 -812 0
-754 -813 0
-754 -814 0
-754 -815 0
-754 -816 0
-754 -817 0
-754 -818 0
-754 -819 0
-754 -820 0
-754 -821 0
-754 -822 0
-754 -823 0
-754 -824 0
-754 -825 0
-754 -826 0
-754 -827 0
-754 -828 0
-754 -829 0
-755 -756 0
-755 -757 0
-755 -758 0
-755 -759 0
-755 -760 0
-755 -761 0
-755 -762 0
-755 -763 0
-755 -764 0
-755 -765 0
-755 -766 0
-755 -767 0
-755 -768 0
-755 -769 0
-755 -770 0
-755 -771 0
-755 -772 0
-755 -773 0
-755 -774 0
-755 -775 0
-755 -776 0
-755 -777 0
-755 -778 0
-755 -779 0
-755 -780 0
-755 -781 0
-755 -782 0
-755 -783 0
-755 -784 0
-755 -785 0
-755 -786 0
-755 -787 0
-755 -788 0
-755 -789 0
-755 -790 0
-755 -791 0
-755 -792 0
-755 -793 0
-755 -794 0
-755 -795 0
-755 -796 0
-755 -797 0
-755 -798 0
-755 -799 0
-755 -800 0
-755 -801 0
-755 -802 0
-755 -803 0
-755 -804 0
-755 -805 0
-755 -806 0
-755 -807 0
-755 -808 0
-755 -809 0
-755 -810 0
-755 -811 0
-755 -812 0
-755 -813 0
-755 -814 0
-755 -815 0
-755 -816 0
-755 -817 0
-755 -818 0
-755 -819 0
-755 -820 0
-755 -821 0
-755 -822 0
-755 -823 0
-755 -824 0
-755 -825 0
-755 -826 0
-755 -827 0
-755 -828 0
-755 -829 0
-756 -757 0
-756 -758 0
-756 -759 0
-756 -760 0
-756 -761 0
-756 -762 0
-756 -763 0
-756 -764 0
-756 -765 0
-756 -766 0
-756 -767 0
-756 -768 0
-756 -769 0
-756 -770 0
-756 -771 0
-756 -772 0
-756 -773 0
-756 -774 0
-756 -775 0
-756 -776 0
-756 -777 0
-756 -778 0
-756 -779 0
-756 -780 0
-756 -781 0
-756 -782 0
-756 -783 0
-756 -784 0
-756 -785 0
-756 -786 0
-756 -787 0
-756 -788 0
-756 -789 0
-756 -790 0
-756 -791 0
-756 -792 0
-756 -793 0
-756 -794 0
-756 -795 0
-756 -796 0
-756 -797 0
-756 -798 0
-756 -799 0
-756 -800 0
-756 -801 0
-756 -802 0
-756 -803 0
-756 -804 0
-756 -805 0
-756 -806 0
-756 -807 0
-756 -808 0
-756 -809 0
-756 -810 0
-756 -811 0
-756 -812 0
-756 -813 0
-756 -814 0
-756 -815 0
-756 -816 0
-756 -817 0
-756 -818 0
-756 -819 0
-756 -820 0
-756 -821 0
-756 -822 0
-756 -823 0
-756 -824 0
-756 -825 0
-756 -826 0
-756 -827 0
-756 -828 0
-756 -829 0
-757 -758 0
-757 -759 0
-757 -760 0
-757 -761 0
-757 -762 0
-757 -763 0
-757 -764 0
-757 -765 0
-757 -766 0
-757 -767 0
-757 -768 0
-757 -769 0
-757 -770 0
-757 -771 0
-757 -772 0
-757 -773 0
-757 -774 0
-757 -775 0
-757 -776 0
-757 -777 0
-757 -778 0
-757 -779 0
-757 -780 0
-757 -781 0
-757 -782 0
-757 -783 0
-757 -784 0
-757 -785 0
-757 -786 0
-757 -787 0
-757 -788 0
-757 -789 0
-757 -790 0
-757 -791 0
-757 -792 0
-757 -793 0
-757 -794 0
-757 -795 0
-757 -796 0
-757 -797 0
-757 -798 0
-757 -799 0
-757 -800 0
-757 -801 0
-757 -802 0
-757 -803 0
-757 -804 0
-757 -805 0
-757 -806 0
-757 -807 0
-757 -808 0
-757 -809 0
-757 -810 0
-757 -811 0
-757 -812 0
-757 -813 0
-757 -814 0
-757 -815 0
-757 -816 0
-757 -817 0
-757 -818 0
-757 -819 0
-757 -820 0
-757 -821 0
-757 -822 0
-757 -823 0
-757 -824 0
-757 -825 0
-757 -826 0
-757 -827 0
-757 -828 0
-757 -829 0
-758 -759 0
-758 -760 0
-758 -761 0
-758 -762 0
-758 -763 0
-758 -764 0
-758 -765 0
-758 -766 0
-758 -767 0
-758 -768 0
-758 -769 0
-758 -770 0
-758 -771 0
-758 -772 0
-758 -773 0
-758 -774 0
-758 -775 0
-758 -776 0
-758 -777 0
-758 -778 0
-758 -779 0
-758 -780 0
-758 -781 0
-758 -782 0
-758 -783 0
-758 -784 0
-758 -785 0
-758 -786 0
-758 -787 0
-758 -788 0
-758 -789 0
-758 -790 0
-758 -791 0
-758 -792 0
-758 -793 0
-758 -794 0
-758 -795 0
-758 -796 0
-758 -797 0
-758 -798 0
-758 -799 0
-758 -800 0
-758 -801 0
-758 -802 0
-758 -803 0
-758 -804 0
-758 -805 0
-758 -806 0
-758 -807 0
-758 -808 0
-758 -809 0
-758 -810 0
-758 -811 0
-758 -812 0
-758 -813 0
-758 -814 0
-758 -815 0
-758 -816 0
-758 -817 0
-758 -818 0
-758 -819 0
-758 -820 0
-758 -821 0
-758 -822 0
-758 -823 0
-758 -824 0
-758 -825 0
-758 -826 0
-758 -827 0
-758 -828 0
-758 -829 0
-759 -760 0
-759 -761 0
-759 -762 0
-759 -763 0
-759 -764 0
-759 -765 0
-759 -766 0
-759 -767 0
-759 -768 0
-759 -769 0
-759 -770 0
-759 -771 0
-759 -772 0
-759 -773 0
-759 -774 0
-759 -775 0
-759 -776 0
-759 -777 0
-759 -778 0
-759 -779 0
-759 -780 0
-759 -781 0
-759 -782 0
-759 -783 0
-759 -784 0
-759 -785 0
-759 -786 0
-759 -787 0
-759 -788 0
-759 -789 0
-759 -790 0
-759 -791 0
-759 -792 0
-759 -793 0
-759 -794 0
-759 -795 0
-759 -796 0
-759 -797 0
-759 -798 0
-759 -799 0
-759 -800 0
-759 -801 0
-759 -802 0
-759 -803 0
-759 -804 0
-759 -805 0
-759 -806 0
-759 -807 0
-759 -808 0
-759 -809 0
-759 -810 0
-759 -811 0
-759 -812 0
-759 -813 0
-759 -814 0
-759 -815 0
-759 -816 0
-759 -817 0
-759 -818 0
-759 -819 0
-759 -820 0
-759 -821 0
-759 -822 0
-759 -823 0
-759 -824 0
-759 -825 0
-759 -826 0
-759 -827 0
-759 -828 0
-759 -829 0
-760 -761 0
-760 -762 0
-760 -763 0
-760 -764 0
-760 -765 0
-760 -766 0
-760 -767 0
-760 -768 0
-760 -769 0
-760 -770 0
-760 -771 0
-760 -772 0
-760 -773 0
-760 -774 0
-760 -775 0
-760 -776 0
-760 -777 0
-760 -778 0
-760 -779 0
-760 -780 0
-760 -781 0
-760 -782 0
-760 -783 0
-760 -784 0
-760 -785 0
-760 -786 0
-760 -787 0
-760 -788 0
-760 -789 0
-760 -790 0
-760 -791 0
-760 -792 0
-760 -793 0
-760 -794 0
-760 -795 0
-760 -796 0
-760 -797 0
-760 -798 0
-760 -799 0
-760 -800 0
-760 -801 0
-760 -802 0
-760 -803 0
-760 -804 0
-760 -805 0
-760 -806 0
-760 -807 0
-760 -808 0
-760 -809 0
-760 -810 0
-760 -811 0
-760 -812 0
-760 -813 0
-760 -814 0
-760 -815 0
-760 -816 0
-760 -817 0
-760 -818 0
-760 -819 0
-760 -820 0
-760 -821 0
-760 -822 0
-760 -823 0
-760 -824 0
-760 -825 0
-760 -826 0
-760 -827 0
-760 -828 0
-760 -829 0
-761 -762 0
-761 -763 0
-761 -764 0
-761 -765 0
-761 -766 0
-761 -767 0
-761 -768 0
-761 -769 0
-761 -770 0
-761 -771 0
-761 -772 0
-761 -773 0
-761 -774 0
-761 -775 0
-761 -776 0
-761 -777 0
-761 -778 0
-761 -779 0
-761 -780 0
-761 -781 0
-761 -782 0
-761 -783 0
-761 -784 0
-761 -785 0
-761 -786 0
-761 -787 0
-761 -788 0
-761 -789 0
-761 -790 0
-761 -791 0
-761 -792 0
-761 -793 0
-761 -794 0
-761 -795 0
-761 -796 0
-761 -797 0
-761 -798 0
-761 -799 0
-761 -800 0
-761 -801 0
-761 -802 0
-761 -803 0
-761 -804 0
-761 -805 0
-761 -806 0
-761 -807 0
-761 -808 0
-761 -809 0
-761 -810 0
-761 -811 0
-761 -812 0
-761 -813 0
-761 -814 0
-761 -815 0
-761 -816 0
-761 -817 0
-761 -818 0
-761 -819 0
-761 -820 0
-761 -821 0
-761 -822 0
-761 -823 0
-761 -824 0
-761 -825 0
-761 -826 0
-761 -827 0
-761 -828 0
-761 -829 0
-762 -763 0
-762 -764 0
-762 -765 0
-762 -766 0
-762 -767 0
-762 -768 0
-762 -769 0
-762 -770 0
-762 -771 0
-762 -772 0
-762 -773 0
-762 -774 0
-762 -775 0
-762 -776 0
-762 -777 0
-762 -778 0
-762 -779 0
-762 -780 0
-762 -781 0
-762 -782 0
-762 -783 0
-762 -784 0
-762 -785 0
-762 -786 0
-762 -787 0
-762 -788 0
-762 -789 0
-762 -790 0
-762 -791 0
-762 -792 0
-762 -793 0
-762 -794 0
-762 -795 0
-762 -796 0
-762 -797 0
-762 -798 0
-762 -799 0
-762 -800 0
-762 -801 0
-762 -802 0
-762 -803 0
-762 -804 0
-762 -805 0
-762 -806 0
-762 -807 0
-762 -808 0
-762 -809 0
-762 -810 0
-762 -811 0
-762 -812 0
-762 -813 0
-762 -814 0
-762 -815 0
-762 -816 0
-762 -817 0
-762 -818 0
-762 -819 0
-762 -820 0
-762 -821 0
-762 -822 0
-762 -823 0
-762 -824 0
-762 -825 0
-762 -826 0
-762 -827 0
-762 -828 0
-762 -829 0
-763 -764 0
-763 -765 0
-763 -766 0
-763 -767 0
-763 -768 0
-763 -769 0
-763 -770 0
-763 -771 0
-763 -772 0
-763 -773 0
-763 -774 0
-763 -775 0
-763 -776 0
-763 -777 0
-763 -778 0
-763 -779 0
-763 -780 0
-763 -781 0
-763 -782 0
-763 -783 0
-763 -784 0
-763 -785 0
-763 -786 0
-763 -787 0
-763 -788 0
-763 -789 0
-763 -790 0
-763 -791 0
-763 -792 0
-763 -793 0
-763 -794 0
-763 -795 0
-763 -796 0
-763 -797 0
-763 -798 0
-763 -799 0
-763 -800 0
-763 -801 0
-763 -802 0
-763 -803 0
-763 -804 0
-763 -805 0
-763 -806 0
-763 -807 0
-763 -808 0
-763 -809 0
-763 -810 0
-763 -811 0
-763 -812 0
-763 -813 0
-763 -814 0
-763 -815 0
-763 -816 0
-763 -817 0
-763 -818 0
-763 -819 0
-763 -820 0
-763 -821 0
-763 -822 0
-763 -823 0
-763 -824 0
-763 -825 0
-763 -826 0
-763 -827 0
-763 -828 0
-763 -829 0
-764 -765 0
-764 -766 0
-764 -767 0
-764 -768 0
-764 -769 0
-764 -770 0
-764 -771 0
-764 -772 0
-764 -773 0
-764 -774 0
-764 -775 0
-764 -776 0
-764 -777 0
-764 -778 0
-764 -779 0
-764 -780 0
-764 -781 0
-764 -782 0
-764 -783 0
-764 -784 0
-764 -785 0
-764 -786 0
-764 -787 0
-764 -788 0
-764 -789 0
-764 -790 0
-764 -791 0
-764 -792 0
-764 -793 0
-764 -794 0
-764 -795 0
-764 -796 0
-764 -797 0
-764 -798 0
-764 -799 0
-764 -800 0
-764 -801 0
-764 -802 0
-764 -803 0
-764 -804 0
-764 -805 0
-764 -806 0
-764 -807 0
-764 -808 0
-764 -809 0
-764 -810 0
-764 -811 0
-764 -812 0
-764 -813 0
-764 -814 0
-764 -815 0
-764 -816 0
-764 -817 0
-764 -818 0
-764 -819 0
-764 -820 0
-764 -821 0
-764 -822 0
-764 -823 0
-764 -824 0
-764 -825 0
-764 -826 0
-764 -827 0
-764 -828 0
-764 -829 0
-765 -766 0
-765 -767 0
-765 -768 0
-765 -769 0
-765 -770 0
-765 -771 0
-765 -772 0
-765 -773 0
-765 -774 0
-765 -775 0
-765 -776 0
-765 -777 0
-765 -778 0
-765 -779 0
-765 -780 0
-765 -781 0
-765 -782 0
-765 -783 0
-765 -784 0
-765 -785 0
-765 -786 0
-765 -787 0
-765 -788 0
-765 -789 0
-765 -790 0
-765 -791 0
-765 -792 0
-765 -793 0
-765 -794 0
-765 -795 0
-765 -796 0
-765 -797 0
-765 -798 0
-765 -799 0
-765 -800 0
-765 -801 0
-765 -802 0
-765 -803 0
-765 -804 0
-765 -805 0
-765 -806 0
-765 -807 0
-765 -808 0
-765 -809 0
-765 -810 0
-765 -811 0
-765 -812 0
-765 -813 0
-765 -814 0
-765 -815 0
-765 -816 0
-765 -817 0
-765 -818 0
-765 -819 0
-765 -820 0
-765 -821 0
-765 -822 0
-765 -823 0
-765 -824 0
-765 -825 0
-765 -826 0
-765 -827 0
-765 -828 0
-765 -829 0
-766 -767 0
-766 -768 0
-766 -769 0
-766 -770 0
-766 -771 0
-766 -772 0
-766 -773 0
-766 -774 0
-766 -775 0
-766 -776 0
-766 -777 0
-766 -778 0
-766 -779 0
-766 -780 0
-766 -781 0
-766 -782 0
-766 -783 0
-766 -784 0
-766 -785 0
-766 -786 0
-766 -787 0
-766 -788 0
-766 -789 0
-766 -790 0
-766 -791 0
-766 -792 0
-766 -793 0
-766 -794 0
-766 -795 0
-766 -796 0
-766 -797 0
-766 -798 0
-766 -799 0
-766 -800 0
-766 -801 0
-766 -802 0
-766 -803 0
-766 -804 0
-766 -805 0
-766 -806 0
-766 -807 0
-766 -808 0
-766 -809 0
-766 -810 0
-766 -811 0
-766 -812 0
-766 -813 0
-766 -814 0
-766 -815 0
-766 -816 0
-766 -817 0
-766 -818 0
-766 -819 0
-766 -820 0
-766 -821 0
-766 -822 0
-766 -823 0
-766 -824 0
-766 -825 0
-766 -826 0
-766 -827 0
-766 -828 0
-766 -829 0
-767 -768 0
-767 -769 0
-767 -770 0
-767 -771 0
-767 -772 0
-767 -773 0
-767 -774 0
-767 -775 0
-767 -776 0
-767 -777 0
-767 -778 0
-767 -779 0
-767 -780 0
-767 -781 0
-767 -782 0
-767 -783 0
-767 -784 0
-767 -785 0
-767 -786 0
-767 -787 0
-767 -788 0
-767 -789 0
-767 -790 0
-767 -791 0
-767 -792 0
-767 -793 0
-767 -794 0
-767 -795 0
-767 -796 0
-767 -797 0
-767 -798 0
-767 -799 0
-767 -800 0
-767 -801 0
-767 -802 0
-767 -803 0
-767 -804 0
-767 -805 0
-767 -806 0
-767 -807 0
-767 -808 0
-767 -809 0
-767 -810 0
-767 -811 0
-767 -812 0
-767 -813 0
-767 -814 0
-767 -815 0
-767 -816 0
-767 -817 0
-767 -818 0
-767 -819 0
-767 -820 0
-767 -821 0
-767 -822 0
-767 -823 0
-767 -824 0
-767 -825 0
-767 -826 0
-767 -827 0
-767 -828 0
-767 -829 0
-768 -769 0
-768 -770 0
-768 -771 0
-768 -772 0
-768 -773 0
-768 -774 0
-768 -775 0
-768 -776 0
-768 -777 0
-768 -778 0
-768 -779 0
-768 -780 0
-768 -781 0
-768 -782 0
-768 -783 0
-768 -784 0
-768 -785 0
-768 -786 0
-768 -787 0
-768 -788 0
-768 -789 0
-768 -790 0
-768 -791 0
-768 -792 0
-768 -793 0
-768 -794 0
-768 -795 0
-768 -796 0
-768 -797 0
-768 -798 0
-768 -799 0
-768 -800 0
-768 -801 0
-768 -802 0
-768 -803 0
-768 -804 0
-768 -805 0
-768 -806 0
-768 -807 0
-768 -808 0
-768 -809 0
-768 -810 0
-768 -811 0
-768 -812 0
-768 -813 0
-768 -814 0
-768 -815 0
-768 -816 0
-768 -817 0
-768 -818 0
-768 -819 0
-768 -820 0
-768 -821 0
-768 -822 0
-768 -823 0
-768 -824 0
-768 -825 0
-768 -826 0
-768 -827 0
-768 -828 0
-768 -829 0
-769 -770 0
-769 -771 0
-769 -772 0
-769 -773 0
-769 -774 0
-769 -775 0
-769 -776 0
-769 -777 0
-769 -778 0
-769 -779 0
-769 -780 0
-769 -781 0
-769 -782 0
-769 -783 0
-769 -784 0
-769 -785 0
-769 -786 0
-769 -787 0
-769 -788 0
-769 -789 0
-769 -790 0
-769 -791 0
-769 -792 0
-769 -793 0
-769 -794 0
-769 -795 0
-769 -796 0
-769 -797 0
-769 -798 0
-769 -799 0
-769 -800 0
-769 -801 0
-769 -802 0
-769 -803 0
-769 -804 0
-769 -805 0
-769 -806 0
-769 -807 0
-769 -808 0
-769 -809 0
-769 -810 0
-769 -811 0
-769 -812 0
-769 -813 0
-769 -814 0
-769 -815 0
-769 -816 0
-769 -817 0
-769 -818 0
-769 -819 0
-769 -820 0
-769 -821 0
-769 -822 0
-769 -823 0
-769 -824 0
-769 -825 0
-769 -826 0
-769 -827 0
-769 -828 0
-769 -829 0
-770 -771 0
-770 -772 0
-770 -773 0
-770 -774 0
-770 -775 0
-770 -776 0
-770 -777 0
-770 -778 0
-770 -779 0
-770 -780 0
-770 -781 0
-770 -782 0
-770 -783 0
-770 -784 0
-770 -785 0
-770 -786 0
-770 -787 0
-770 -788 0
-770 -789 0
-770 -790 0
-770 -791 0
-770 -792 0
-770 -793 0
-770 -794 0
-770 -795 0
-770 -796 0
-770 -797 0
-770 -798 0
-770 -799 0
-770 -800 0
-770 -801 0
-770 -802 0
-770 -803 0
-770 -804 0
-770 -805 0
-770 -806 0
-770 -807 0
-770 -808 0
-770 -809 0
-770 -810 0
-770 -811 0
-770 -812 0
-770 -813 0
-770 -814 0
-770 -815 0
-770 -816 0
-770 -817 0
-770 -818 0
-770 -819 0
-770 -820 0
-770 -821 0
-770 -822 0
-770 -823 0
-770 -824 0
-770 -825 0
-770 -826 0
-770 -827 0
-770 -828 0
-770 -829 0
-771 -772 0
-771 -773 0
-771 -774 0
-771 -775 0
-771 -776 0
-771 -777 0
-771 -778 0
-771 -779 0
-771 -780 0
-771 -781 0
-771 -782 0
-771 -783 0
-771 -784 0
-771 -785 0
-771 -786 0
-771 -787 0
-771 -788 0
-771 -789 0
-771 -790 0
-771 -791 0
-771 -792 0
-771 -793 0
-771 -794 0
-771 -795 0
-771 -796 0
-771 -797 0
-771 -798 0
-771 -799 0
-771 -800 0
-771 -801 0
-771 -802 0
-771 -803 0
-771 -804 0
-771 -805 0
-771 -806 0
-771 -807 0
-771 -808 0
-771 -809 0
-771 -810 0
-771 -811 0
-771 -812 0
-771 -813 0
-771 -814 0
-771 -815 0
-771 -816 0
-771 -817 0
-771 -818 0
-771 -819 0
-771 -820 0
-771 -821 0
-771 -822 0
-771 -823 0
-771 -824 0
-771 -825 0
-771 -826 0
-771 -827 0
-771 -828 0
-771 -829 0
-772 -773 0
-772 -774 0
-772 -775 0
-772 -776 0
-772 -777 0
-772 -778 0
-772 -779 0
-772 -780 0
-772 -781 0
-772 -782 0
-772 -783 0
-772 -784 0
-772 -785 0
-772 -786 0
-772 -787 0
-772 -788 0
-772 -789 0
-772 -790 0
-772 -791 0
-772 -792 0
-772 -793 0
-772 -794 0
-772 -795 0
-772 -796 0
-772 -797 0
-772 -798 0
-772 -799 0
-772 -800 0
-772 -801 0
-772 -802 0
-772 -803 0
-772 -804 0
-772 -805 0
-772 -806 0
-772 -807 0
-772 -808 0
-772 -809 0
-772 -810 0
-772 -811 0
-772 -812 0
-772 -813 0
-772 -814 0
-772 -815 0
-772 -816 0
-772 -817 0
-772 -818 0
-772 -819 0
-772 -820 0
-772 -821 0
-772 -822 0
-772 -823 0
-772 -824 0
-772 -825 0
-772 -826 0
-772 -827 0
-772 -828 0
-772 -829 0
-773 -774 0
-773 -775 0
-773 -776 0
-773 -777 0
-773 -778 0
-773 -779 0
-773 -780 0
-773 -781 0
-773 -782 0
-773 -783 0
-773 -784 0
-773 -785 0
-773 -786 0
-773 -787 0
-773 -788 0
-773 -789 0
-773 -790 0
-773 -791 0
-773 -792 0
-773 -793 0
-773 -794 0
-773 -795 0
-773 -796 0
-773 -797 0
-773 -798 0
-773 -799 0
-773 -800 0
-773 -801 0
-773 -802 0
-773 -803 0
-773 -804 0
-773 -805 0
-773 -806 0
-773 -807 0
-773 -808 0
-773 -809 0
-773 -810 0
-773 -811 0
-773 -812 0
-773 -813 0
-773 -814 0
-773 -815 0
-773 -816 0
-773 -817 0
-773 -818 0
-773 -819 0
-773 -820 0
-773 -821 0
-773 -822 0
-773 -823 0
-773 -824 0
-773 -825 0
-773 -826 0
-773 -827 0
-773 -828 0
-773 -829 0
-774 -775 0
-774 -776 0
-774 -777 0
-774 -778 0
-774 -779 0
-774 -780 0
-774 -781 0
-774 -782 0
-774 -783 0
-774 -784 0
-774 -785 0
-774 -786 0
-774 -787 0
-774 -788 0
-774 -789 0
-774 -790 0
-774 -791 0
-774 -792 0
-774 -793 0
-774 -794 0
-774 -795 0
-774 -796 0
-774 -797 0
-774 -798 0
-774 -799 0
-774 -800 0
-774 -801 0
-774 -802 0
-774 -803 0
-774 -804 0
-774 -805 0
-774 -806 0
-774 -807 0
-774 -808 0
-774 -809 0
-774 -810 0
-774 -811 0
-774 -812 0
-774 -813 0
-774 -814 0
-774 -815 0
-774 -816 0
-774 -817 0
-774 -818 0
-774 -819 0
-774 -820 0
-774 -821 0
-774 -822 0
-774 -823 0
-774 -824 0
-774 -825 0
-774 -826 0
-774 -827 0
-774 -828 0
-774 -829 0
-775 -776 0
-775 -777 0
-775 -778 0
-775 -779 0
-775 -780 0
-775 -781 0
-775 -782 0
-775 -783 0
-775 -784 0
-775 -785 0
-775 -786 0
-775 -787 0
-775 -788 0
-775 -789 0
-775 -790 0
-775 -791 0
-775 -792 0
-775 -793 0
-775 -794 0
-775 -795 0
-775 -796 0
-775 -797 0
-775 -798 0
-775 -799 0
-775 -800 0
-775 -801 0
-775 -802 0
-775 -803 0
-775 -804 0
-775 -805 0
-775 -806 0
-775 -807 0
-775 -808 0
-775 -809 0
-775 -810 0
-775 -811 0
-775 -812 0
-775 -813 0
-775 -814 0
-775 -815 0
-775 -816 0
-775 -817 0
-775 -818 0
-775 -819 0
-775 -820 0
-775 -821 0
-775 -822 0
-775 -823 0
-775 -824 0
-775 -825 0
-775 -826 0
-775 -827 0
-775 -828 0
-775 -829 0
-776 -777 0
-776 -778 0
-776 -779 0
-776 -780 0
-776 -781 0
-776 -782 0
-776 -783 0
-776 -784 0
-776 -785 0
-776 -786 0
-776 -787 0
-776 -788 0
-776 -789 0
-776 -790 0
-776 -791 0
-776 -792 0
-776 -793 0
-776 -794 0
-776 -795 0
-776 -796 0
-776 -797 0
-776 -798 0
-776 -799 0
-776 -800 0
-776 -801 0
-776 -802 0
-776 -803 0
-776 -804 0
-776 -805 0
-776 -806 0
-776 -807 0
-776 -808 0
-776 -809 0
-776 -810 0
-776 -811 0
-776 -812 0
-776 -813 0
-776 -814 0
-776 -815 0
-776 -816 0
-776 -817 0
-776 -818 0
-776 -819 0
-776 -820 0
-776 -821 0
-776 -822 0
-776 -823 0
-776 -824 0
-776 -825 0
-776 -826 0
-776 -827 0
-776 -828 0
-776 -829 0
-777 -778 0
-777 -779 0
-777 -780 0
-777 -781 0
-777 -782 0
-777 -783 0
-777 -784 0
-777 -785 0
-777 -786 0
-777 -787 0
-777 -788 0
-777 -789 0
-777 -790 0
-777 -791 0
-777 -792 0
-777 -793 0
-777 -794 0
-777 -795 0
-777 -796 0
-777 -797 0
-777 -798 0
-777 -799 0
-777 -800 0
-777 -801 0
-777 -802 0
-777 -803 0
-777 -804 0
-777 -805 0
-777 -806 0
-777 -807 0
-777 -808 0
-777 -809 0
-777 -810 0
-777 -811 0
-777 -812 0
-777 -813 0
-777 -814 0
-777 -815 0
-777 -816 0
-777 -817 0
-777 -818 0
-777 -819 0
-777 -820 0
-777 -821 0
-777 -822 0
-777 -823 0
-777 -824 0
-777 -825 0
-777 -826 0
-777 -827 0
-777 -828 0
-777 -829 0
-778 -779 0
-778 -780 0
-778 -781 0
-778 -782 0
-778 -783 0
-778 -784 0
-778 -785 0
-778 -786 0
-778 -787 0
-778 -788 0
-778 -789 0
-778 -790 0
-778 -791 0
-778 -792 0
-778 -793 0
-778 -794 0
-778 -795 0
-778 -796 0
-778 -797 0
-778 -798 0
-778 -799 0
-778 -800 0
-778 -801 0
-778 -802 0
-778 -803 0
-778 -804 0
-778 -805 0
-778 -806 0
-778 -807 0
-778 -808 0
-778 -809 0
-778 -810 0
-778 -811 0
-778 -812 0
-778 -813 0
-778 -814 0
-778 -815 0
-778 -816 0
-778 -817 0
-778 -818 0
-778 -819 0
-778 -820 0
-778 -821 0
-778 -822 0
-778 -823 0
-778 -824 0
-778 -825 0
-778 -826 0
-778 -827 0
-778 -828 0
-778 -829 0
-779 -780 0
-779 -781 0
-779 -782 0
-779 -783 0
-779 -784 0
-779 -785 0
-779 -786 0
-779 -787 0
-779 -788 0
-779 -789 0
-779 -790 0
-779 -791 0
-779 -792 0
-779 -793 0
-779 -794 0
-779 -795 0
-779 -796 0
-779 -797 0
-779 -798 0
-779 -799 0
-779 -800 0
-779 -801 0
-779 -802 0
-779 -803 0
-779 -804 0
-779 -805 0
-779 -806 0
-779 -807 0
-779 -808 0
-779 -809 0
-779 -810 0
-779 -811 0
-779 -812 0
-779 -813 0
-779 -814 0
-779 -815 0
-779 -816 0
-779 -817 0
-779 -818 0
-779 -819 0
-779 -820 0
-779 -821 0
-779 -822 0
-779 -823 0
-779 -824 0
-779 -825 0
-779 -826 0
-779 -827 0
-779 -828 0
-779 -829 0
-780 -781 0
-780 -782 0
-780 -783 0
-780 -784 0
-780 -785 0
-780 -786 0
-780 -787 0
-780 -788 0
-780 -789 0
-780 -790 0
-780 -791 0
-780 -792 0
-780 -793 0
-780 -794 0
-780 -795 0
-780 -796 0
-780 -797 0
-780 -798 0
-780 -799 0
-780 -800 0
-780 -801 0
-780 -802 0
-780 -803 0
-780 -804 0
-780 -805 0
-780 -806 0
-780 -807 0
-780 -808 0
-780 -809 0
-780 -810 0
-780 -811 0
-780 -812 0
-780 -813 0
-780 -814 0
-780 -815 0
-780 -816 0
-780 -817 0
-780 -818 0
-780 -819 0
-780 -820 0
-780 -821 0
-780 -822 0
-780 -823 0
-780 -824 0
-780 -825 0
-780 -826 0
-780 -827 0
-780 -828 0
-780 -829 0
-781 -782 0
-781 -783 0
-781 -784 0
-781 -785 0
-781 -786 0
-781 -787 0
-781 -788 0
-781 -789 0
-781 -790 0
-781 -791 0
-781 -792 0
-781 -793 0
-781 -794 0
-781 -795 0
-781 -796 0
-781 -797 0
-781 -798 0
-781 -799 0
-781 -800 0
-781 -801 0
-781 -802 0
-781 -803 0
-781 -804 0
-781 -805 0
-781 -806 0
-781 -807 0
-781 -808 0
-781 -809 0
-781 -810 0
-781 -811 0
-781 -812 0
-781 -813 0
-781 -814 0
-781 -815 0
-781 -816 0
-781 -817 0
-781 -818 0
-781 -819 0
-781 -820 0
-781 -821 0
-781 -822 0
-781 -823 0
-781 -824 0
-781 -825 0
-781 -826 0
-781 -827 0
-781 -828 0
-781 -829 0
-782 -783 0
-782 -784 0
-782 -785 0
-782 -786 0
-782 -787 0
-782 -788 0
-782 -789 0
-782 -790 0
-782 -791 0
-782 -792 0
-782 -793 0
-782 -794 0
-782 -795 0
-782 -796 0
-782 -797 0
-782 -798 0
-782 -799 0
-782 -800 0
-782 -801 0
-782 -802 0
-782 -803 0
-782 -804 0
-782 -805 0
-782 -806 0
-782 -807 0
-782 -808 0
-782 -809 0
-782 -810 0
-782 -811 0
-782 -812 0
-782 -813 0
-782 -814 0
-782 -815 0
-782 -816 0
-782 -817 0
-782 -818 0
-782 -819 0
-782 -820 0
-782 -821 0
-782 -822 0
-782 -823 0
-782 -824 0
-782 -825 0
-782 -826 0
-782 -827 0
-782 -828 0
-782 -829 0
-783 -784 0
-783 -785 0
-783 -786 0
-783 -787 0
-783 -788 0
-783 -789 0
-783 -790 0
-783 -791 0
-783 -792 0
-783 -793 0
-783 -794 0
-783 -795 0
-783 -796 0
-783 -797 0
-783 -798 0
-783 -799 0
-783 -800 0
-783 -801 0
-783 -802 0
-783 -803 0
-783 -804 0
-783 -805 0
-783 -806 0
-783 -807 0
-783 -808 0
-783 -809 0
-783 -810 0
-783 -811 0
-783 -812 0
-783 -813 0
-783 -814 0
-783 -815 0
-783 -816 0
-783 -817 0
-783 -818 0
-783 -819 0
-783 -820 0
-783 -821 0
-783 -822 0
-783 -823 0
-783 -824 0
-783 -825 0
-783 -826 0
-783 -827 0
-783 -828 0
-783 -829 0
-784 -785 0
-784 -786 0
-784 -787 0
-784 -788 0
-784 -789 0
-784 -790 0
-784 -791 0
-784 -792 0
-784 -793 0
-784 -794 0
-784 -795 0
-784 -796 0
-784 -797 0
-784 -798 0
-784 -799 0
-784 -800 0
-784 -801 0
-784 -802 0
-784 -803 0
-784 -804 0
-784 -805 0
-784 -806 0
-784 -807 0
-784 -808 0
-784 -809 0
-784 -810 0
-784 -811 0
-784 -812 0
-784 -813 0
-784 -814 0
-784 -815 0
-784 -816 0
-784 -817 0
-784 -818 0
-784 -819 0
-784 -820 0
-784 -821 0
-784 -822 0
-784 -823 0
-784 -824 0
-784 -825 0
-784 -826 0
-784 -827 0
-784 -828 0
-784 -829 0
-785 -786 0
-785 -787 0
-785 -788 0
-785 -789 0
-785 -790 0
-785 -791 0
-785 -792 0
-785 -793 0
-785 -794 0
-785 -795 0
-785 -796 0
-785 -797 0
-785 -798 0
-785 -799 0
-785 -800 0
-785 -801 0
-785 -802 0
-785 -803 0
-785 -804 0
-785 -805 0
-785 -806 0
-785 -807 0
-785 -808 0
-785 -809 0
-785 -810 0
-785 -811 0
-785 -812 0
-785 -813 0
-785 -814 0
-785 -815 0
-785 -816 0
-785 -817 0
-785 -818 0
-785 -819 0
-785 -820 0
-785 -821 0
-785 -822 0
-785 -823 0
-785 -824 0
-785 -825 0
-785 -826 0
-785 -827 0
-785 -828 0
-785 -829 0
-786 -787 0
-786 -788 0
-786 -789 0
-786 -790 0
-786 -791 0
-786 -792 0
-786 -793 0
-786 -794 0
-786 -795 0
-786 -796 0
-786 -797 0
-786 -798 0
-786 -799 0
-786 -800 0
-786 -801 0
-786 -802 0
-786 -803 0
-786 -804 0
-786 -805 0
-786 -806 0
-786 -807 0
-786 -808 0
-786 -809 0
-786 -810 0
-786 -811 0
-786 -812 0
-786 -813 0
-786 -814 0
-786 -815 0
-786 -816 0
-786 -817 0
-786 -818 0
-786 -819 0
-786 -820 0
-786 -821 0
-786 -822 0
-786 -823 0
-786 -824 0
-786 -825 0
-786 -826 0
-786 -827 0
-786 -828 0
-786 -829 0
-787 -788 0
-787 -789 0
-787 -790 0
-787 -791 0
-787 -792 0
-787 -793 0
-787 -794 0
-787 -795 0
-787 -796 0
-787 -797 0
-787 -798 0
-787 -799 0
-787 -800 0
-787 -801 0
-787 -802 0
-787 -803 0
-787 -804 0
-787 -805 0
-787 -806 0
-787 -807 0
-787 -808 0
-787 -809 0
-787 -810 0
-787 -811 0
-787 -812 0
-787 -813 0
-787 -814 0
-787 -815 0
-787 -816 0
-787 -817 0
-787 -818 0
-787 -819 0
-787 -820 0
-787 -821 0
-787 -822 0
-787 -823 0
-787 -824 0
-787 -825 0
-787 -826 0
-787 -827 0
-787 -828 0
-787 -829 0
-788 -789 0
-788 -790 0
-788 -791 0
-788 -792 0
-788 -793 0
-788 -794 0
-788 -795 0
-788 -796 0
-788 -797 0
-788 -798 0
-788 -799 0
-788 -800 0
-788 -801 0
-788 -802 0
-788 -803 0
-788 -804 0
-788 -805 0
-788 -806 0
-788 -807 0
-788 -808 0
-788 -809 0
-788 -810 0
-788 -811 0
-788 -812 0
-788 -813 0
-788 -814 0
-788 -815 0
-788 -816 0
-788 -817 0
-788 -818 0
-788 -819 0
-788 -820 0
-788 -821 0
-788 -822 0
-788 -823 0
-788 -824 0
-788 -825 0
-788 -826 0
-788 -827 0
-788 -828 0
-788 -829 0
-789 -790 0
-789 -791 0
-789 -792 0
-789 -793 0
-789 -794 0
-789 -795 0
-789 -796 0
-789 -797 0
-789 -798 0
-789 -799 0
-789 -800 0
-789 -801 0
-789 -802 0
-789 -803 0
-789 -804 0
-789 -805 0
-789 -806 0
-789 -807 0
-789 -808 0
-789 -809 0
-789 -810 0
-789 -811 0
-789 -812 0
-789 -813 0
-789 -814 0
-789 -815 0
-789 -816 0
-789 -817 0
-789 -818 0
-789 -819 0
-789 -820 0
-789 -821 0
-789 -822 0
-789 -823 0
-789 -824 0
-789 -825 0
-789 -826 0
-789 -827 0
-789 -828 0
-789 -829 0
-790 -791 0
-790 -792 0
-790 -793 0
-790 -794 0
-790 -795 0
-790 -796 0
-790 -797 0
-790 -798 0
-790 -799 0
-790 -800 0
-790 -801 0
-790 -802 0
-790 -803 0
-790 -804 0
-790 -805 0
-790 -806 0
-790 -807 0
-790 -808 0
-790 -809 0
-790 -810 0
-790 -811 0
-790 -812 0
-790 -813 0
-790 -814 0
-790 -815 0
-790 -816 0
-790 -817 0
-790 -818 0
-790 -819 0
-790 -820 0
-790 -821 0
-790 -822 0
-790 -823 0
-790 -824 0
-790 -825 0
-790 -826 0
-790 -827 0
-790 -828 0
-790 -829 0
-791 -792 0
-791 -793 0
-791 -794 0
-791 -795 0
-791 -796 0
-791 -797 0
-791 -798 0
-791 -799 0
-791 -800 0
-791 -801 0
-791 -802 0
-791 -803 0
-791 -804 0
-791 -805 0
-791 -806 0
-791 -807 0
-791 -808 0
-791 -809 0
-791 -810 0
-791 -811 0
-791 -812 0
-791 -813 0
-791 -814 0
-791 -815 0
-791 -816 0
-791 -817 0
-791 -818 0
-791 -819 0
-791 -820 0
-791 -821 0
-791 -822 0
-791 -823 0
-791 -824 0
-791 -825 0
-791 -826 0
-791 -827 0
-791 -828 0
-791 -829 0
-792 -793 0
-792 -794 0
-792 -795 0
-792 -796 0
-792 -797 0
-792 -798 0
-792 -799 0
-792 -800 0
-792 -801 0
-792 -802 0
-792 -803 0
-792 -804 0
-792 -805 0
-792 -806 0
-792 -807 0
-792 -808 0
-792 -809 0
-792 -810 0
-792 -811 0
-792 -812 0
-792 -813 0
-792 -814 0
-792 -815 0
-792 -816 0
-792 -817 0
-792 -818 0
-792 -819 0
-792 -820 0
-792 -821 0
-792 -822 0
-792 -823 0
-792 -824 0
-792 -825 0
-792 -826 0
-792 -827 0
-792 -828 0
-792 -829 0
-793 -794 0
-793 -795 0
-793 -796 0
-793 -797 0
-793 -798 0
-793 -799 0
-793 -800 0
-793 -801 0
-793 -802 0
-793 -803 0
-793 -804 0
-793 -805 0
-793 -806 0
-793 -807 0
-793 -808 0
-793 -809 0
-793 -810 0
-793 -811 0
-793 -812 0
-793 -813 0
-793 -814 0
-793 -815 0
-793 -816 0
-793 -817 0
-793 -818 0
-793 -819 0
-793 -820 0
-793 -821 0
-793 -822 0
-793 -823 0
-793 -824 0
-793 -825 0
-793 -826 0
-793 -827 0
-793 -828 0
-793 -829 0
-794 -795 0
-794 -796 0
-794 -797 0
-794 -798 0
-794 -799 0
-794 -800 0
-794 -801 0
-794 -802 0
-794 -803 0
-794 -804 0
-794 -805 0
-794 -806 0
-794 -807 0
-794 -808 0
-794 -809 0
-794 -810 0
-794 -811 0
-794 -812 0
-794 -813 0
-794 -814 0
-794 -815 0
-794 -816 0
-794 -817 0
-794 -818 0
-794 -819 0
-794 -820 0
-794 -821 0
-794 -822 0
-794 -823 0
-794 -824 0
-794 -825 0
-794 -826 0
-794 -827 0
-794 -828 0
-794 -829 0
-795 -796 0
-795 -797 0
-795 -798 0
-795 -799 0
-795 -800 0
-795 -801 0
-795 -802 0
-795 -803 0
-795 -804 0
-795 -805 0
-795 -806 0
-795 -807 0
-795 -808 0
-795 -809 0
-795 -810 0
-795 -811 0
-795 -812 0
-795 -813 0
-795 -814 0
-795 -815 0
-795 -816 0
-795 -817 0
-795 -818 0
-795 -819 0
-795 -820 0
-795 -821 0
-795 -822 0
-795 -823 0
-795 -824 0
-795 -825 0
-795 -826 0
-795 -827 0
-795 -828 0
-795 -829 0
-796 -797 0
-796 -798 0
-796 -799 0
-796 -800 0
-796 -801 0
-796 -802 0
-796 -803 0
-796 -804 0
-796 -805 0
-796 -806 0
-796 -807 0
-796 -808 0
-796 -809 0
-796 -810 0
-796 -811 0
-796 -812 0
-796 -813 0
-796 -814 0
-796 -815 0
-796 -816 0
-796 -817 0
-796 -818 0
-796 -819 0
-796 -820 0
-796 -821 0
-796 -822 0
-796 -823 0
-796 -824 0
-796 -825 0
-796 -826 0
-796 -827 0
-796 -828 0
-796 -829 0
-797 -798 0
-797 -799 0
-797 -800 0
-797 -801 0
-797 -802 0
-797 -803 0
-797 -804 0
-797 -805 0
-797 -806 0
-797 -807 0
-797 -808 0
-797 -809 0
-797 -810 0
-797 -811 0
-797 -812 0
-797 -813 0
-797 -814 0
-797 -815 0
-797 -816 0
-797 -817 0
-797 -818 0
-797 -819 0
-797 -820 0
-797 -821 0
-797 -822 0
-797 -823 0
-797 -824 0
-797 -825 0
-797 -826 0
-797 -827 0
-797 -828 0
-797 -829 0
-798 -799 0
-798 -800 0
-798 -801 0
-798 -802 0
-798 -803 0
-798 -804 0
-798 -805 0
-798 -806 0
-798 -807 0
-798 -808 0
-798 -809 0
-798 -810 0
-798 -811 0
-798 -812 0
-798 -813 0
-798 -814 0
-798 -815 0
-798 -816 0
-798 -817 0
-798 -818 0
-798 -819 0
-798 -820 0
-798 -821 0
-798 -822 0
-798 -823 0
-798 -824 0
-798 -825 0
-798 -826 0
-798 -827 0
-798 -828 0
-798 -829 0
-799 -800 0
-799 -801 0
-799 -802 0
-799 -803 0
-799 -804 0
-799 -805 0
-799 -806 0
-799 -807 0
-799 -808 0
-799 -809 0
-799 -810 0
-799 -811 0
-799 -812 0
-799 -813 0
-799 -814 0
-799 -815 0
-799 -816 0
-799 -817 0
-799 -818 0
-799 -819 0
-799 -820 0
-799 -821 0
-799 -822 0
-799 -823 0
-799 -824 0
-799 -825 0
-799 -826 0
-799 -827 0
-799 -828 0
-799 -829 0
-800 -801 0
-800 -802 0
-800 -803 0
-800 -804 0
-800 -805 0
-800 -806 0
-800 -807 0
-800 -808 0
-800 -809 0
-800 -810 0
-800 -811 0
-800 -812 0
-800 -813 0
-800 -814 0
-800 -815 0
-800 -816 0
-800 -817 0
-800 -818 0
-800 -819 0
-800 -820 0
-800 -821 0
-800 -822 0
-800 -823 0
-800 -824 0
-800 -825 0
-800 -826 0
-800 -827 0
-800 -828 0
-800 -829 0
-801 -802 0
-801 -803 0
-801 -804 0
-801 -805 0
-801 -806 0
-801 -807 0
-801 -808 0
-801 -809 0
-801 -810 0
-801 -811 0
-801 -812 0
-801 -813 0
-801 -814 0
-801 -815 0
-801 -816 0
-801 -817 0
-801 -818 0
-801 -819 0
-801 -820 0
-801 -821 0
-801 -822 0
-801 -823 0
-801 -824 0
-801 -825 0
-801 -826 0
-801 -827 0
-801 -828 0
-801 -829 0
-802 -803 0
-802 -804 0
-802 -805 0
-802 -806 0
-802 -807 0
-802 -808 0
-802 -809 0
-802 -810 0
-802 -811 0
-802 -812 0
-802 -813 0
-802 -814 0
-802 -815 0
-802 -816 0
-802 -817 0
-802 -818 0
-802 -819 0
-802 -820 0
-802 -821 0
-802 -822 0
-802 -823 0
-802 -824 0
-802 -825 0
-802 -826 0
-802 -827 0
-802 -828 0
-802 -829 0
-803 -804 0
-803 -805 0
-803 -806 0
-803 -807 0
-803 -808 0
-803 -809 0
-803 -810 0
-803 -811 0
-803 -812 0
-803 -813 0
-803 -814 0
-803 -815 0
-803 -816 0
-803 -817 0
-803 -818 0
-803 -819 0
-803 -820 0
-803 -821 0
-803 -822 0
-803 -823 0
-803 -824 0
-803 -825 0
-803 -826 0
-803 -827 0
-803 -828 0
-803 -829 0
-804 -805 0
-804 -806 0
-804 -807 0
-804 -808 0
-804 -809 0
-804 -810 0
-804 -811 0
-804 -812 0
-804 -813 0
-804 -814 0
-804 -815 0
-804 -816 0
-804 -817 0
-804 -818 0
-804 -819 0
-804 -820 0
-804 -821 0
-804 -822 0
-804 -823 0
-804 -824 0
-804 -825 0
-804 -826 0
-804 -827 0
-804 -828 0
-804 -829 0
-805 -806 0
-805 -807 0
-805 -808 0
-805 -809 0
-805 -810 0
-805 -811 0
-805 -812 0
-805 -813 0
-805 -814 0
-805 -815 0
-805 -816 0
-805 -817 0
-805 -818 0
-805 -819 0
-805 -820 0
-805 -821 0
-805 -822 0
-805 -823 0
-805 -824 0
-805 -825 0
-805 -826 0
-805 -827 0
-805 -828 0
-805 -829 0
-806 -807 0
-806 -808 0
-806 -809 0
-806 -810 0
-806 -811 0
-806 -812 0
-806 -813 0
-806 -814 0
-806 -815 0
-806 -816 0
-806 -817 0
-806 -818 0
-806 -819 0
-806 -820 0
-806 -821 0
-806 -822 0
-806 -823 0
-806 -824 0
-806 -825 0
-806 -826 0
-806 -827 0
-806 -828 0
-806 -829 0
-807 -808 0
-807 -809 0
-807 -810 0
-807 -811 0
-807 -812 0
-807 -813 0
-807 -814 0
-807 -815 0
-807 -816 0
-807 -817 0
-807 -818 0
-807 -819 0
-807 -820 0
-807 -821 0
-807 -822 0
-807 -823 0
-807 -824 0
-807 -825 0
-807 -826 0
-807 -827 0
-807 -828 0
-807 -829 0
-808 -809 0
-808 -810 0
-808 -811 0
-808 -812 0
-808 -813 0
-808 -814 0
-808 -815 0
-808 -816 0
-808 -817 0
-808 -818 0
-808 -819 0
-808 -820 0
-808 -821 0
-808 -822 0
-808 -823 0
-808 -824 0
-808 -825 0
-808 -826 0
-808 -827 0
-808 -828 0
-808 -829 0
-809 -810 0
-809 -811 0
-809 -812 0
-809 -813 0
-809 -814 0
-809 -815 0
-809 -816 0
-809 -817 0
-809 -818 0
-809 -819 0
-809 -820 0
-809 -821 0
-809 -822 0
-809 -823 0
-809 -824 0
-809 -825 0
-809 -826 0
-809 -827 0
-809 -828 0
-809 -829 0
-810 -811 0
-810 -812 0
-810 -813 0
-810 -814 0
-810 -815 0
-810 -816 0
-810 -817 0
-810 -818 0
-810 -819 0
-810 -820 0
-810 -821 0
-810 -822 0
-810 -823 0
-810 -824 0
-810 -825 0
-810 -826 0
-810 -827 0
-810 -828 0
-810 -829 0
-811 -812 0
-811 -813 0
-811 -814 0
-811 -815 0
-811 -816 0
-811 -817 0
-811 -818 0
-811 -819 0
-811 -820 0
-811 -821 0
-811 -822 0
-811 -823 0
-811 -824 0
-811 -825 0
-811 -826 0
-811 -827 0
-811 -828 0
-811 -829 0
-812 -813 0
-812 -814 0
-812 -815 0
-812 -816 0
-812 -817 0
-812 -818 0
-812 -819 0
-812 -820 0
-812 -821 0
-812 -822 0
-812 -823 0
-812 -824 0
-812 -825 0
-812 -826 0
-812 -827 0
-812 -828 0
-812 -829 0
-813 -814 0
-813 -815 0
-813 -816 0
-813 -817 0
-813 -818 0
-813 -819 0
-813 -820 0
-813 -821 0
-813 -822 0
-813 -823 0
-813 -824 0
-813 -825 0
-813 -826 0
-813 -827 0
-813 -828 0
-813 -829 0
-814 -815 0
-814 -816 0
-814 -817 0
-814 -818 0
-814 -819 0
-814 -820 0
-814 -821 0
-814 -822 0
-814 -823 0
-814 -824 0
-814 -825 0
-814 -826 0
-814 -827 0
-814 -828 0
-814 -829 0
-815 -816 0
-815 -817 0
-815 -818 0
-815 -819 0
-815 -820 0
-815 -821 0
-815 -822 0
-815 -823 0
-815 -824 0
-815 -825 0
-815 -826 0
-815 -827 0
-815 -828 0
-815 -829 0
-816 -817 0
-816 -818 0
-816 -819 0
-816 -820 0
-816 -821 0
-816 -822 0
-816 -823 0
-816 -824 0
-816 -825 0
-816 -826 0
-816 -827 0
-816 -828 0
-816 -829 0
-817 -818 0
-817 -819 0
-817 -820 0
-817 -821 0
-817 -822 0
-817 -823 0
-817 -824 0
-817 -825 0
-817 -826 0
-817 -827 0
-817 -828 0
-817 -829 0
-818 -819 0
-818 -820 0
-818 -821 0
-818 -822 0
-818 -823 0
-818 -824 0
-818 -825 0
-818 -826 0
-818 -827 0
-818 -828 0
-818 -829 0
-819 -820 0
-819 -821 0
-819 -822 0
-819 -823 0
-819 -824 0
-819 -825 0
-819 -826 0
-819 -827 0
-819 -828 0
-819 -829 0
-820 -821 0
-820 -822 0
-820 -823 0
-820 -824 0
-820 -825 0
-820 -826 0
-820 -827 0
-820 -828 0
-820 -829 0
-821 -822 0
-821 -823 0
-821 -824 0
-821 -825 0
-821 -826 0
-821 -827 0
-821 -828 0
-821 -829 0
-822 -823 0
-822 -824 0
-822 -825 0
-822 -826 0
-822 -827 0
-822 -828 0
-822 -829 0
-823 -824 0
-823 -825 0
-823 -826 0
-823 -827 0
-823 -828 0
-823 -829 0
-824 -825 0
-824 -826 0
-824 -827 0
-824 -828 0
-824 -829 0
-825 -826 0
-825 -827 0
-825 -828 0
-825 -829 0
-826 -827 0
-826 -828 0
-826 -829 0
-827 -828 0
-827 -829 0
-828 -829 0
-1 150 746 747 748 749 750 751 752 753 754 755 756 757 758 759 760 761 762 763 764 765 766 767 768 769 0
1 -150 746 747 748 749 750 751 752 753 754 755 756 757 758 759 760 761 762 763 764 765 766 767 768 769 0
-2 151 746 747 748 749 750 751 752 753 754 755 756 757 758 759 760 761 762 763 764 765 766 767 768 769 0
2 -151 746 747 748 749 750 751 752 753 754 755 756 757 758 759 760 761 762 763 764 765 766 767 768 769 0
-3 152 746 747 748 749 750 751 752 753 754 755 756 757 758 759 760 761 762 763 764 765 766 767 768 769 0
3 -152 746 747 748 749 750 751 752 753 754 755 756 757 758 759 760 761 762 763 764 765 766 767 768 769 0
-4 153 746 747 748 749 750 751 752 753 754 755 756 757 758 759 760 761 762 763 764 765 766 767 768 769 0
4 -153 746 747 748 749 750 751 752 753 754 755 756 757 758 759 760 761 762 763 764 765 766 767 768 769 0
-5 154 746 747 748 749 750 751 752 753 754 755 756 757 758 759 760 761 762 763 764 765 766 767 768 769 0
5 -154 746 747 748 749 750 751 752 753 754 755 756 757 758 759 760 761 762 763 764 765 766 767 768 769 0
-6 155 746 747 748 749 750 751 752 753 754 755 756 757 758 759 760 761 762 763 764 765 766 767 768 769 0
6 -155 746 747 748 749 750 751 752 753 754 755 756 757 758 759 760 761 762 763 764 765 766 767 768 769 0
-7 156 746 747 748 749 750 751 752 753 754 755 756 757 758 759 760 761 762 763 764 765 766 767 768 769 0
7 -156 746 747 748 749 750 751 752 753 754 755 756 757 758 759 760 761 762 763 764 765 766 767 768 769 0
-8 157 746 747 748 749 750 751 752 753 754 755 756 757 758 759 760 761 762 763 764 765 766 767 768 769 0
8 -157 746 747 748 749 750 751 752 753 754 755 756 757 758 759 760 761 762 763 764 765 766 767 768 769 0
-9 158 746 747 748 749 750 751 752 753 754 755 756 757 758 759 760 761 762 763 764 765 766 767 768 769 0
9 -158 746 747 748 749 750 751 752 753 754 755 756 757 758 759 760 761 762 763 764 765 766 767 768 769 0
-10 159 746 747 748 749 750 751 752 753 754 755 756 757 758 759 760 761 762 763 764 765 766 767 768 769 0
10 -159 746 747 748 749 750 751 752 753 754 755 756 757 758 759 760 761 762 763 764 765 766 767 768 769 0
-60 209 770 771 772 773 774 775 776 777 778 779 780 781 782 783 784 785 786 787 788 789 790 791 792 793 0
60 -209 770 771 772 773 774 775 776 777 778 779 780 781 782 783 784 785 786 787 788 789 790 791 792 793 0
-61 210 770 771 772 773 774 775 776 777 778 779 780 781 782 783 784 785 786 787 788 789 790 791 792 793 0
61 -210 770 771 772 773 774 775 776 777 778 779 780 781 782 783 784 785 786 787 788 789 790 791 792 793 0
-62 211 770 771 772 773 774 775 776 777 778 779 780 781 782 783 784 785 786 787 788 789 790 791 792 793 0
62 -211 770 771 772 773 774 775 776 777 778 779 780 781 782 783 784 785 786 787 788 789 790 791 792 793 0
-63 212 770 771 772 773 774 775 776 777 778 779 780 781 782 783 784 785 786 787 788 789 790 791 792 793 0
63 -212 770 771 772 773 774 775 776 777 778 779 780 781 782 783 784 785 786 787 788 789 790 791 792 793 0
-64 213 770 771 772 773 774 775 776 777 778 779 780 781 782 783 784 785 786 787 788 789 790 791 792 793 0
64 -213 770 771 772 773 774 775 776 777 778 779 780 781 782 783 784 785 786 787 788 789 790 791 792 793 0
-65 214 770 771 772 773 774 775 776 777 778 779 780 781 782 783 784 785 786 787 788 789 790 791 792 793 0
65 -214 770 771 772 773 774 775 776 777 778 779 780 781 782 783 784 785 786 787 788 789 790 791 792 793 0
-66 215 770 771 772 773 774 775 776 777 778 779 780 781 782 783 784 785 786 787 788 789 790 791 792 793 0
66 -215 770 771 772 773 774 775 776 777 778 779 780 781 782 783 784 785 786 787 788 789 790 791 792 793 0
-67 216 770 771 772 773 774 775 776 777 778 779 780 781 782 783 784 785 786 787 788 789 790 791 792 793 0
67 -216 770 771 772 773 774 775 776 777 778 779 780 781 782 783 784 785 786 787 788 789 790 791 792 793 0
-68 217 770 771 772 773 774 775 776 777 778 779 780 781 782 783 784 785 786 787 788 789 790 791 792 793 0
68 -217 770 771 772 773 774 775 776 777 778 779 780 781 782 783 784 785 786 787 788 789 790 791 792 793 0
-69 218 770 771 772 773 774 775 776 777 778 779 780 781 782 783 784 785 786 787 788 789 790 791 792 793 0
69 -218 770 771 772 773 774 775 776 777 778 779 780 781 782 783 784 785 786 787 788 789 790 791 792 793 0
-95 244 794 795 796 797 798 799 800 801 802 803 804 805 806 807 808 809 810 811 812 813 0
95 -244 794 795 796 797 798 799 800 801 802 803 804 805 806 807 808 809 810 811 812 813 0
-96 245 794 795 796 797 798 799 800 801 802 803 804 805 806 807 808 809 810 811 812 813 0
96 -245 794 795 796 797 798 799 800 801 802 803 804 805 806 807 808 809 810 811 812 813 0
-97 246 794 795 796 797 798 799 800 801 802 803 804 805 806 807 808 809 810 811 812 813 0
97 -246 794 795 796 797 798 799 800 801 802 803 804 805 806 807 808 809 810 811 812 813 0
-98 247 794 795 796 797 798 799 800 801 802 803 804 805 806 807 808 809 810 811 812 813 0
98 -247 794 795 796 797 798 799 800 801 802 803 804 805 806 807 808 809 810 811 812 813 0
-99 248 794 795 796 797 798 799 800 801 802 803 804 805 806 807 808 809 810 811 812 813 0
99 -248 794 795 796 797 798 799 800 801 802 803 804 805 806 807 808 809 810 811 812 813 0
-100 249 794 795 796 797 798 799 800 801 802 803 804 805 806 807 808 809 810 811 812 813 0
100 -249 794 795 796 797 798 799 800 801 802 803 804 805 806 807 808 809 810 811 812 813 0
-101 250 794 795 796 797 798 799 800 801 802 803 804 805 806 807 808 809 810 811 812 813 0
101 -250 794 795 796 797 798 799 800 801 802 803 804 805 806 807 808 809 810 811 812 813 0
-102 251 794 795 796 797 798 799 800 801 802 803 804 805 806 807 808 809 810 811 812 813 0
102 -251 794 795 796 797 798 799 800 801 802 803 804 805 806 807 808 809 810 811 812 813 0
-103 252 794 795 796 797 798 799 800 801 802 803 804 805 806 807 808 809 810 811 812 813 0
103 -252 794 795 796 797 798 799 800 801 802 803 804 805 806 807 808 809 810 811 812 813 0
-125 274 814 815 816 817 818 819 820 821 822 823 824 825 826 827 828 829 0
125 -274 814 815 816 817 818 819 820 821 822 823 824 825 826 827 828 829 0
-126 275 814 815 816 817 818 819 820 821 822 823 824 825 826 827 828 829 0
126 -275 814 815 816 817 818 819 820 821 822 823 824 825 826 827 828 829 0
-127 276 814 815 816 817 818 819 820 821 822 823 824 825 826 827 828 829 0
127 -276 814 815 816 817 818 819 820 821 822 823 824 825 826 827 828 829 0
-128 277 814 815 816 817 818 819 820 821 822 823 824 825 826 827 828 829 0
128 -277 814 815 816 817 818 819 820 821 822 823 824 825 826 827 828 829 0
-129 278 814 815 816 817 818 819 820 821 822 823 824 825 826 827 828 829 0
129 -278 814 815 816 817 818 819 820 821 822 823 824 825 826 827 828 829 0
-130 279 814 815 816 817 818 819 820 821 822 823 824 825 826 827 828 829 0
130 -279 814 815 816 817 818 819 820 821 822 823 824 825 826 827 828 829 0
-131 280 814 815 816 817 818 819 820 821 822 823 824 825 826 827 828 829 0
131 -280 814 815 816 817 818 819 820 821 822 823 824 825 826 827 828 829 0
-132 281 814 815 816 817 818 819 820 821 822 823 824 825 826 827 828 829 0
132 -281 814 815 816 817 818 819 820 821 822 823 824 825 826 827 828 829 0
-830 164 0
-830 299 0
-830 313 0
-830 305 0
-830 -150 -156 0
-831 164 0
-831 300 0
-831 313 0
-831 305 0
-831 -151 -156 0
-832 164 0
-832 301 0
-832 313 0
-832 305 0
-832 -152 -156 0
-833 164 0
-833 302 0
-833 313 0
-833 305 0
-833 -153 -156 0
-834 164 0
-834 303 0
-834 313 0
-834 305 0
-834 -154 -156 0
-835 164 0
-835 304 0
-835 313 0
-835 305 0
-835 -155 -156 0
-836 164 0
-836 299 0
-836 313 0
-836 209 0
-836 -218 0
-836 -369 0
-836 -215 306 0
-836 -215 -150 -157 0
-836 -216 307 0
-836 -216 -150 -158 0
-836 -217 308 0
-836 -217 -150 -159 0
-837 164 0
-837 300 0
-837 313 0
-837 210 0
-837 -218 0
-837 -369 0
-837 -215 306 0
-837 -215 -151 -157 0
-837 -216 307 0
-837 -216 -151 -158 0
-837 -217 308 0
-837 -217 -151 -159 0
-838 164 0
-838 301 0
-838 313 0
-838 211 0
-838 -218 0
-838 -369 0
-838 -215 306 0
-838 -215 -152 -157 0
-838 -216 307 0
-838 -216 -152 -158 0
-838 -217 308 0
-838 -217 -152 -159 0
-839 164 0
-839 302 0
-839 313 0
-839 212 0
-839 -218 0
-839 -369 0
-839 -215 306 0
-839 -215 -153 -157 0
-839 -216 307 0
-839 -216 -153 -158 0
-839 -217 308 0
-839 -217 -153 -159 0
-840 164 0
-840 303 0
-840 313 0
-840 213 0
-840 -218 0
-840 -369 0
-840 -215 306 0
-840 -215 -154 -157 0
-840 -216 307 0
-840 -216 -154 -158 0
-840 -217 308 0
-840 -217 -154 -159 0
-841 164 0
-841 304 0
-841 313 0
-841 214 0
-841 -218 0
-841 -369 0
-841 -215 306 0
-841 -215 -155 -157 0
-841 -216 307 0
-841 -216 -155 -158 0
-841 -217 308 0
-841 -217 -155 -159 0
-842 164 0
-842 299 0
-842 313 0
-842 244 0
-842 -252 0
-842 -403 0
-842 -249 306 0
-842 -249 -150 -157 0
-842 -250 307 0
-842 -250 -150 -158 0
-842 -251 308 0
-842 -251 -150 -159 0
-843 164 0
-843 300 0
-843 313 0
-843 244 245 0
-843 -252 0
-843 -403 0
-843 -249 306 0
-843 -249 -151 -157 0
-843 -250 307 0
-843 -250 -151 -158 0
-843 -251 308 0
-843 -251 -151 -159 0
-844 164 0
-844 301 0
-844 313 0
-844 245 246 0
-844 -252 0
-844 -403 0
-844 -249 306 0
-844 -249 -152 -157 0
-844 -250 307 0
-844 -250 -152 -158 0
-844 -251 308 0
-844 -251 -152 -159 0
-845 164 0
-845 302 0
-845 313 0
-845 246 247 0
-845 -252 0
-845 -403 0
-845 -249 306 0
-845 -249 -153 -157 0
-845 -250 307 0
-845 -250 -153 -158 0
-845 -251 308 0
-845 -251 -153 -159 0
-846 164 0
-846 303 0
-846 313 0
-846 247 248 0
-846 -252 0
-846 -403 0
-846 -249 306 0
-846 -249 -154 -157 0
-846 -250 307 0
-846 -250 -154 -158 0
-846 -251 308 0
-846 -251 -154 -159 0
-847 164 0
-847 304 0
-847 313 0
-847 248 0
-847 -252 0
-847 -403 0
-847 -249 306 0
-847 -249 -155 -157 0
-847 -250 307 0
-847 -250 -155 -158 0
-847 -251 308 0
-847 -251 -155 -159 0
-848 164 0
-848 299 0
-848 313 0
-848 274 0
-848 -281 0
-848 -432 0
-848 -278 306 0
-848 -278 -150 -157 0
-848 -279 307 0
-848 -279 -150 -158 0
-848 -280 308 0
-848 -280 -150 -159 0
-849 164 0
-849 300 0
-849 313 0
-849 274 275 0
-849 -281 0
-849 -432 0
-849 -278 306 0
-849 -278 -151 -157 0
-849 -279 307 0
-849 -279 -151 -158 0
-849 -280 308 0
-849 -280 -151 -159 0
-850 164 0
-850 301 0
-850 313 0
-850 274 275 276 0
-850 -281 0
-850 -432 0
-850 -278 306 0
-850 -278 -152 -157 0
-850 -279 307 0
-850 -279 -152 -158 0
-850 -280 308 0
-850 -280 -152 -159 0
-851 164 0
-851 302 0
-851 313 0
-851 275 276 277 0
-851 -281 0
-851 -432 0
-851 -278 306 0
-851 -278 -153 -157 0
-851 -279 307 0
-851 -279 -153 -158 0
-851 -280 308 0
-851 -280 -153 -159 0
-852 164 0
-852 303 0
-852 313 0
-852 276 277 0
-852 -281 0
-852 -432 0
-852 -278 306 0
-852 -278 -154 -157 0
-852 -279 307 0
-852 -279 -154 -158 0
-852 -280 308 0
-852 -280 -154 -159 0
-853 164 0
-853 304 0
-853 313 0
-853 277 0
-853 -281 0
-853 -432 0
-853 -278 306 0
-853 -278 -155 -157 0
-853 -279 307 0
-853 -279 -155 -158 0
-853 -280 308 0
-853 -280 -155 -159 0
-854 220 0
-854 358 0
-854 369 0
-854 364 0
-854 -209 -215 0
-855 220 0
-855 359 0
-855 369 0
-855 364 0
-855 -210 -215 0
-856 220 0
-856 360 0
-856 369 0
-856 364 0
-856 -211 -215 0
-857 220 0
-857 361 0
-857 369 0
-857 364 0
-857 -212 -215 0
-858 220 0
-858 362 0
-858 369 0
-858 364 0
-858 -213 -215 0
-859 220 0
-859 363 0
-859 369 0
-859 364 0
-859 -214 -215 0
-860 220 0
-860 358 0
-860 369 0
-860 150 0
-860 -159 0
-860 -313 0
-860 -156 365 0
-860 -156 -209 -216 0
-860 -157 366 0
-860 -157 -209 -217 0
-860 -158 367 0
-860 -158 -209 -218 0
-861 220 0
-861 359 0
-861 369 0
-861 151 0
-861 -159 0
-861 -313 0
-861 -156 365 0
-861 -156 -210 -216 0
-861 -157 366 0
-861 -157 -210 -217 0
-861 -158 367 0
-861 -158 -210 -218 0
-862 220 0
-862 360 0
-862 369 0
-862 152 0
-862 -159 0
-862 -313 0
-862 -156 365 0
-862 -156 -211 -216 0
-862 -157 366 0
-862 -157 -211 -217 0
-862 -158 367 0
-862 -158 -211 -218 0
-863 220 0
-863 361 0
-863 369 0
-863 153 0
-863 -159 0
-863 -313 0
-863 -156 365 0
-863 -156 -212 -216 0
-863 -157 366 0
-863 -157 -212 -217 0
-863 -158 367 0
-863 -158 -212 -218 0
-864 220 0
-864 362 0
-864 369 0
-864 154 0
-864 -159 0
-864 -313 0
-864 -156 365 0
-864 -156 -213 -216 0
-864 -157 366 0
-864 -157 -213 -217 0
-864 -158 367 0
-864 -158 -213 -218 0
-865 220 0
-865 363 0
-865 369 0
-865 155 0
-865 -159 0
-865 -313 0
-865 -156 365 0
-865 -156 -214 -216 0
-865 -157 366 0
-865 -157 -214 -217 0
-865 -158 367 0
-865 -158 -214 -218 0
-866 220 0
-866 358 0
-866 369 0
-866 244 0
-866 -252 0
-866 -403 0
-866 -249 365 0
-866 -249 -209 -216 0
-866 -250 366 0
-866 -250 -209 -217 0
-866 -251 367 0
-866 -251 -209 -218 0
-867 220 0
-867 359 0
-867 369 0
-867 244 245 0
-867 -252 0
-867 -403 0
-867 -249 365 0
-867 -249 -210 -216 0
-867 -250 366 0
-867 -250 -210 -217 0
-867 -251 367 0
-867 -251 -210 -218 0
-868 220 0
-868 360 0
-868 369 0
-868 245 246 0
-868 -252 0
-868 -403 0
-868 -249 365 0
-868 -249 -211 -216 0
-868 -250 366 0
-868 -250 -211 -217 0
-868 -251 367 0
-868 -251 -211 -218 0
-869 220 0
-869 361 0
-869 369 0
-869 246 247 0
-869 -252 0
-869 -403 0
-869 -249 365 0
-869 -249 -212 -216 0
-869 -250 366 0
-869 -250 -212 -217 0
-869 -251 367 0
-869 -251 -212 -218 0
-870 220 0
-870 362 0
-870 369 0
-870 247 248 0
-870 -252 0
-870 -403 0
-870 -249 365 0
-870 -249 -213 -216 0
-870 -250 366 0
-870 -250 -213 -217 0
-870 -251 367 0
-870 -251 -213 -218 0
-871 220 0
-871 363 0
-871 369 0
-871 248 0
-871 -252 0
-871 -403 0
-871 -249 365 0
-871 -249 -214 -216 0
-871 -250 366 0
-871 -250 -214 -217 0
-871 -251 367 0
-871 -251 -214 -218 0
-872 220 0
-872 358 0
-872 369 0
-872 274 0
-872 -281 0
-872 -432 0
-872 -278 365 0
-872 -278 -209 -216 0
-872 -279 366 0
-872 -279 -209 -217 0
-872 -280 367 0
-872 -280 -209 -218 0
-873 220 0
-873 359 0
-873 369 0
-873 274 275 0
-873 -281 0
-873 -432 0
-873 -278 365 0
-873 -278 -210 -216 0
-873 -279 366 0
-873 -279 -210 -217 0
-873 -280 367 0
-873 -280 -210 -218 0
-874 220 0
-874 360 0
-874 369 0
-874 274 275 276 0
-874 -281 0
-874 -432 0
-874 -278 365 0
-874 -278 -211 -216 0
-874 -279 366 0
-874 -279 -211 -217 0
-874 -280 367 0
-874 -280 -211 -218 0
-875 220 0
-875 361 0
-875 369 0
-875 275 276 277 0
-875 -281 0
-875 -432 0
-875 -278 365 0
-875 -278 -212 -216 0
-875 -279 366 0
-875 -279 -212 -217 0
-875 -280 367 0
-875 -280 -212 -218 0
-876 220 0
-876 362 0
-876 369 0
-876 276 277 0
-876 -281 0
-876 -432 0
-876 -278 365 0
-876 -278 -213 -216 0
-876 -279 366 0
-876 -279 -213 -217 0
-876 -280 367 0
-876 -280 -213 -218 0
-877 220 0
-877 363 0
-877 369 0
-877 277 0
-877 -281 0
-877 -432 0
-877 -278 365 0
-877 -278 -214 -216 0
-877 -279 366 0
-877 -279 -214 -217 0
-877 -280 367 0
-877 -280 -214 -218 0
-878 254 0
-878 393 0
-878 403 0
-878 398 0
-878 -244 -249 0
-879 254 0
-879 394 0
-879 403 0
-879 398 0
-879 -245 -249 0
-880 254 0
-880 395 0
-880 403 0
-880 398 0
-880 -246 -249 0
-881 254 0
-881 396 0
-881 403 0
-881 398 0
-881 -247 -249 0
-882 254 0
-882 397 0
-882 403 0
-882 398 0
-882 -248 -249 0
-883 254 0
-883 393 0
-883 403 0
-883 150 151 0
-883 -159 0
-883 -313 0
-883 -156 399 0
-883 -156 -244 -250 0
-883 -157 400 0
-883 -157 -244 -251 0
-883 -158 401 0
-883 -158 -244 -252 0
-884 254 0
-884 394 0
-884 403 0
-884 151 152 0
-884 -159 0
-884 -313 0
-884 -156 399 0
-884 -156 -245 -250 0
-884 -157 400 0
-884 -157 -245 -251 0
-884 -158 401 0
-884 -158 -245 -252 0
-885 254 0
-885 395 0
-885 403 0
-885 152 153 0
-885 -159 0
-885 -313 0
-885 -156 399 0
-885 -156 -246 -250 0
-885 -157 400 0
-885 -157 -246 -251 0
-885 -158 401 0
-885 -158 -246 -252 0
-886 254 0
-886 396 0
-886 403 0
-886 153 154 0
-886 -159 0
-886 -313 0
-886 -156 399 0
-886 -156 -247 -250 0
-886 -157 400 0
-886 -157 -247 -251 0
-886 -158 401 0
-886 -158 -247 -252 0
-887 254 0
-887 397 0
-887 403 0
-887 154 155 0
-887 -159 0
-887 -313 0
-887 -156 399 0
-887 -156 -248 -250 0
-887 -157 400 0
-887 -157 -248 -251 0
-887 -158 401 0
-887 -158 -248 -252 0
-888 254 0
-888 393 0
-888 403 0
-888 209 210 0
-888 -218 0
-888 -369 0
-888 -215 399 0
-888 -215 -244 -250 0
-888 -216 400 0
-888 -216 -244 -251 0
-888 -217 401 0
-888 -217 -244 -252 0
-889 254 0
-889 394 0
-889 403 0
-889 210 211 0
-889 -218 0
-889 -369 0
-889 -215 399 0
-889 -215 -245 -250 0
-889 -216 400 0
-889 -216 -245 -251 0
-889 -217 401 0
-889 -217 -245 -252 0
-890 254 0
-890 395 0
-890 403 0
-890 211 212 0
-890 -218 0
-890 -369 0
-890 -215 399 0
-890 -215 -246 -250 0
-890 -216 400 0
-890 -216 -246 -251 0
-890 -217 401 0
-890 -217 -246 -252 0
-891 254 0
-891 396 0
-891 403 0
-891 212 213 0
-891 -218 0
-891 -369 0
-891 -215 399 0
-891 -215 -247 -250 0
-891 -216 400 0
-891 -216 -247 -251 0
-891 -217 401 0
-891 -217 -247 -252 0
-892 254 0
-892 397 0
-892 403 0
-892 213 214 0
-892 -218 0
-892 -369 0
-892 -215 399 0
-892 -215 -248 -250 0
-892 -216 400 0
-892 -216 -248 -251 0
-892 -217 401 0
-892 -217 -248 -252 0
-893 254 0
-893 393 0
-893 403 0
-893 274 275 0
-893 -281 0
-893 -432 0
-893 -278 399 0
-893 -278 -244 -250 0
-893 -279 400 0
-893 -279 -244 -251 0
-893 -280 401 0
-893 -280 -244 -252 0
-894 254 0
-894 394 0
-894 403 0
-894 274 275 276 0
-894 -281 0
-894 -432 0
-894 -278 399 0
-894 -278 -245 -250 0
-894 -279 400 0
-894 -279 -245 -251 0
-894 -280 401 0
-894 -280 -245 -252 0
-895 254 0
-895 395 0
-895 403 0
-895 274 275 276 277 0
-895 -281 0
-895 -432 0
-895 -278 399 0
-895 -278 -246 -250 0
-895 -279 400 0
-895 -279 -246 -251 0
-895 -280 401 0
-895 -280 -246 -252 0
-896 254 0
-896 396 0
-896 403 0
-896 275 276 277 0
-896 -281 0
-896 -432 0
-896 -278 399 0
-896 -278 -247 -250 0
-896 -279 400 0
-896 -279 -247 -251 0
-896 -280 401 0
-896 -280 -247 -252 0
-897 254 0
-897 397 0
-897 403 0
-897 276 277 0
-897 -281 0
-897 -432 0
-897 -278 399 0
-897 -278 -248 -250 0
-897 -279 400 0
-897 -279 -248 -251 0
-897 -280 401 0
-897 -280 -248 -252 0
-898 283 0
-898 423 0
-898 432 0
-898 427 0
-898 -274 -278 0
-899 283 0
-899 424 0
-899 432 0
-899 427 0
-899 -275 -278 0
-900 283 0
-900 425 0
-900 432 0
-900 427 0
-900 -276 -278 0
-901 283 0
-901 426 0
-901 432 0
-901 427 0
-901 -277 -278 0
-902 283 0
-902 423 0
-902 432 0
-902 150 151 152 0
-902 -159 0
-902 -313 0
-902 -156 428 0
-902 -156 -274 -279 0
-902 -157 429 0
-902 -157 -274 -280 0
-902 -158 430 0
-902 -158 -274 -281 0
-903 283 0
-903 424 0
-903 432 0
-903 151 152 153 0
-903 -159 0
-903 -313 0
-903 -156 428 0
-903 -156 -275 -279 0
-903 -157 429 0
-903 -157 -275 -280 0
-903 -158 430 0
-903 -158 -275 -281 0
-904 283 0
-904 425 0
-904 432 0
-904 152 153 154 0
-904 -159 0
-904 -313 0
-904 -156 428 0
-904 -156 -276 -279 0
-904 -157 429 0
-904 -157 -276 -280 0
-904 -158 430 0
-904 -158 -276 -281 0
-905 283 0
-905 426 0
-905 432 0
-905 153 154 155 0
-905 -159 0
-905 -313 0
-905 -156 428 0
-905 -156 -277 -279 0
-905 -157 429 0
-905 -157 -277 -280 0
-905 -158 430 0
-905 -158 -277 -281 0
-906 283 0
-906 423 0
-906 432 0
-906 209 210 211 0
-906 -218 0
-906 -369 0
-906 -215 428 0
-906 -215 -274 -279 0
-906 -216 429 0
-906 -216 -274 -280 0
-906 -217 430 0
-906 -217 -274 -281 0
-907 283 0
-907 424 0
-907 432 0
-907 210 211 212 0
-907 -218 0
-907 -369 0
-907 -215 428 0
-907 -215 -275 -279 0
-907 -216 429 0
-907 -216 -275 -280 0
-907 -217 430 0
-907 -217 -275 -281 0
-908 283 0
-908 425 0
-908 432 0
-908 211 212 213 0
-908 -218 0
-908 -369 0
-908 -215 428 0
-908 -215 -276 -279 0
-908 -216 429 0
-908 -216 -276 -280 0
-908 -217 430 0
-908 -217 -276 -281 0
-909 283 0
-909 426 0
-909 432 0
-909 212 213 214 0
-909 -218 0
-909 -369 0
-909 -215 428 0
-909 -215 -277 -279 0
-909 -216 429 0
-909 -216 -277 -280 0
-909 -217 430 0
-909 -217 -277 -281 0
-910 283 0
-910 423 0
-910 432 0
-910 244 245 246 0
-910 -252 0
-910 -403 0
-910 -249 428 0
-910 -249 -274 -279 0
-910 -250 429 0
-910 -250 -274 -280 0
-910 -251 430 0
-910 -251 -274 -281 0
-911 283 0
-911 424 0
-911 432 0
-911 244 245 246 247 0
-911 -252 0
-911 -403 0
-911 -249 428 0
-911 -249 -275 -279 0
-911 -250 429 0
-911 -250 -275 -280 0
-911 -251 430 0
-911 -251 -275 -281 0
-912 283 0
-912 425 0
-912 432 0
-912 245 246 247 248 0
-912 -252 0
-912 -403 0
-912 -249 428 0
-912 -249 -276 -279 0
-912 -250 429 0
-912 -250 -276 -280 0
-912 -251 430 0
-912 -251 -276 -281 0
-913 283 0
-913 426 0
-913 432 0
-913 246 247 248 0
-913 -252 0
-913 -403 0
-913 -249 428 0
-913 -249 -277 -279 0
-913 -250 429 0
-913 -250 -277 -280 0
-913 -251 430 0
-913 -251 -277 -281 0
830 831 832 833 834 835 836 837 838 839 840 841 842 843 844 845 846 847 848 849 850 851 852 853 854 855 856 857 858 859 860 861 862 863 864 865 866 867 868 869 870 871 872 873 874 875 876 877 878 879 880 881 882 883 884 885 886 887 888 889 890 891 892 893 894 895 896 897 898 899 900 901 902 903 904 905 906 907 908 909 910 911 912 913 0
-830 -831 0
-830 -832 0
-830 -833 0
-830 -834 0
-830 -835 0
-830 -836 0
-830 -837 0
-830 -838 0
-830 -839 0
-830 -840 0
-830 -841 0
-830 -842 0
-830 -843 0
-830 -844 0
-830 -845 0
-830 -846 0
-830 -847 0
-830 -848 0
-830 -849 0
-830 -850 0
-830 -851 0
-830 -852 0
-830 -853 0
-830 -854 0
-830 -855 0
-830 -856 0
-830 -857 0
-830 -858 0
-830 -859 0
-830 -860 0
-830 -861 0
-830 -862 0
-830 -863 0
-830 -864 0
-830 -865 0
-830 -866 0
-830 -867 0
-830 -868 0
-830 -869 0
-830 -870 0
-830 -871 0
-830 -872 0
-830 -873 0
-830 -874 0
-830 -875 0
-830 -876 0
-830 -877 0
-830 -878 0
-830 -879 0
-830 -880 0
-830 -881 0
-830 -882 0
-830 -883 0
-830 -884 0
-830 -885 0
-830 -886 0
-830 -887 0
-830 -888 0
-830 -889 0
-830 -890 0
-830 -891 0
-830 -892 0
-830 -893 0
-830 -894 0
-830 -895 0
-830 -896 0
-830 -897 0
-830 -898 0
-830 -899 0
-830 -900 0
-830 -901 0
-830 -902 0
-830 -903 0
-830 -904 0
-830 -905 0
-830 -906 0
-830 -907 0
-830 -908 0
-830 -909 0
-830 -910 0
-830 -911 0
-830 -912 0
-830 -913 0
-831 -832 0
-831 -833 0
-831 -834 0
-831 -835 0
-831 -836 0
-831 -837 0
-831 -838 0
-831 -839 0
-831 -840 0
-831 -841 0
-831 -842 0
-831 -843 0
-831 -844 0
-831 -845 0
-831 -846 0
-831 -847 0
-831 -848 0
-831 -849 0
-831 -850 0
-831 -851 0
-831 -852 0
-831 -853 0
-831 -854 0
-831 -855 0
-831 -856 0
-831 -857 0
-831 -858 0
-831 -859 0
-831 -860 0
-831 -861 0
-831 -862 0
-831 -863 0
-831 -864 0
-831 -865 0
-831 -866 0
-831 -867 0
-831 -868 0
-831 -869 0
-831 -870 0
-831 -871 0
-831 -872 0
-831 -873 0
-831 -874 0
-831 -875 0
-831 -876 0
-831 -877 0
-831 -878 0
-831 -879 0
-831 -880 0
-831 -881 0
-831 -882 0
-831 -883 0
-831 -884 0
-831 -885 0
-831 -886 0
-831 -887 0
-831 -888 0
-831 -889 0
-831 -890 0
-831 -891 0
-831 -892 0
-831 -893 0
-831 -894 0
-831 -895 0
-831 -896 0
-831 -897 0
-831 -898 0
-831 -899 0
-831 -900 0
-831 -901 0
-831 -902 0
-831 -903 0
-831 -904 0
-831 -905 0
-831 -906 0
-831 -907 0
-831 -908 0
-831 -909 0
-831 -910 0
-831 -911 0
-831 -912 0
-831 -913 0
-832 -833 0
-832 -834 0
-832 -835 0
-832 -836 0
-832 -837 0
-832 -838 0
-832 -839 0
-832 -840 0
-832 -841 0
-832 -842 0
-832 -843 0
-832 -844 0
-832 -845 0
-832 -846 0
-832 -847 0
-832 -848 0
-832 -849 0
-832 -850 0
-832 -851 0
-832 -852 0
-832 -853 0
-832 -854 0
-832 -855 0
-832 -856 0
-832 -857 0
-832 -858 0
-832 -859 0
-832 -860 0
-832 -861 0
-832 -862 0
-832 -863 0
-832 -864 0
-832 -865 0
-832 -866 0
-832 -867 0
-832 -868 0
-832 -869 0
-832 -870 0
-832 -871 0
-832 -872 0
-832 -873 0
-832 -874 0
-832 -875 0
-832 -876 0
-832 -877 0
-832 -878 0
-832 -879 0
-832 -880 0
-832 -881 0
-832 -882 0
-832 -883 0
-832 -884 0
-832 -885 0
-832 -886 0
-832 -887 0
-832 -888 0
-832 -889 0
-832 -890 0
-832 -891 0
-832 -892 0
-832 -893 0
-832 -894 0
-832 -895 0
-832 -896 0
-832 -897 0
-832 -898 0
-832 -899 0
-832 -900 0
-832 -901 0
-832 -902 0
-832 -903 0
-832 -904 0
-832 -905 0
-832 -906 0
-832 -907 0
-832 -908 0
-832 -909 0
-832 -910 0
-832 -911 0
-832 -912 0
-832 -913 0
-833 -834 0
-833 -835 0
-833 -836 0
-833 -837 0
-833 -838 0
-833 -839 0
-833 -840 0
-833 -841 0
-833 -842 0
-833 -843 0
-833 -844 0
-833 -845 0
-833 -846 0
-833 -847 0
-833 -848 0
-833 -849 0
-833 -850 0
-833 -851 0
-833 -852 0
-833 -853 0
-833 -854 0
-833 -855 0
-833 -856 0
-833 -857 0
-833 -858 0
-833 -859 0
-833 -860 0
-833 -861 0
-833 -862 0
-833 -863 0
-833 -864 0
-833 -865 0
-833 -866 0
-833 -867 0
-833 -868 0
-833 -869 0
-833 -870 0
-833 -871 0
-833 -872 0
-833 -873 0
-833 -874 0
-833 -875 0
-833 -876 0
-833 -877 0
-833 -878 0
-833 -879 0
-833 -880 0
-833 -881 0
-833 -882 0
-833 -883 0
-833 -884 0
-833 -885 0
-833 -886 0
-833 -887 0
-833 -888 0
-833 -889 0
-833 -890 0
-833 -891 0
-833 -892 0
-833 -893 0
-833 -894 0
-833 -895 0
-833 -896 0
-833 -897 0
-833 -898 0
-833 -899 0
-833 -900 0
-833 -901 0
-833 -902 0
-833 -903 0
-833 -904 0
-833 -905 0
-833 -906 0
-833 -907 0
-833 -908 0
-833 -909 0
-833 -910 0
-833 -911 0
-833 -912 0
-833 -913 0
-834 -835 0
-834 -836 0
-834 -837 0
-834 -838 0
-834 -839 0
-834 -840 0
-834 -841 0
-834 -842 0
-834 -843 0
-834 -844 0
-834 -845 0
-834 -846 0
-834 -847 0
-834 -848 0
-834 -849 0
-834 -850 0
-834 -851 0
-834 -852 0
-834 -853 0
-834 -854 0
-834 -855 0
-834 -856 0
-834 -857 0
-834 -858 0
-834 -859 0
-834 -860 0
-834 -861 0
-834 -862 0
-834 -863 0
-834 -864 0
-834 -865 0
-834 -866 0
-834 -867 0
-834 -868 0
-834 -869 0
-834 -870 0
-834 -871 0
-834 -872 0
-834 -873 0
-834 -874 0
-834 -875 0
-834 -876 0
-834 -877 0
-834 -878 0
-834 -879 0
-834 -880 0
-834 -881 0
-834 -882 0
-834 -883 0
-834 -884 0
-834 -885 0
-834 -886 0
-834 -887 0
-834 -888 0
-834 -889 0
-834 -890 0
-834 -891 0
-834 -892 0
-834 -893 0
-834 -894 0
-834 -895 0
-834 -896 0
-834 -897 0
-834 -898 0
-834 -899 0
-834 -900 0
-834 -901 0
-834 -902 0
-834 -903 0
-834 -904 0
-834 -905 0
-834 -906 0
-834 -907 0
-834 -908 0
-834 -909 0
-834 -910 0
-834 -911 0
-834 -912 0
-834 -913 0
-835 -836 0
-835 -837 0
-835 -838 0
-835 -839 0
-835 -840 0
-835 -841 0
-835 -842 0
-835 -843 0
-835 -844 0
-835 -845 0
-835 -846 0
-835 -847 0
-835 -848 0
-835 -849 0
-835 -850 0
-835 -851 0
-835 -852 0
-835 -853 0
-835 -854 0
-835 -855 0
-835 -856 0
-835 -857 0
-835 -858 0
-835 -859 0
-835 -860 0
-835 -861 0
-835 -862 0
-835 -863 0
-835 -864 0
-835 -865 0
-835 -866 0
-835 -867 0
-835 -868 0
-835 -869 0
-835 -870 0
-835 -871 0
-835 -872 0
-835 -873 0
-835 -874 0
-835 -875 0
-835 -876 0
-835 -877 0
-835 -878 0
-835 -879 0
-835 -880 0
-835 -881 0
-835 -882 0
-835 -883 0
-835 -884 0
-835 -885 0
-835 -886 0
-835 -887 0
-835 -888 0
-835 -889 0
-835 -890 0
-835 -891 0
-835 -892 0
-835 -893 0
-835 -894 0
-835 -895 0
-835 -896 0
-835 -897 0
-835 -898 0
-835 -899 0
-835 -900 0
-835 -901 0
-835 -902 0
-835 -903 0
-835 -904 0
-835 -905 0
-835 -906 0
-835 -907 0
-835 -908 0
-835 -909 0
-835 -910 0
-835 -911 0
-835 -912 0
-835 -913 0
-836 -837 0
-836 -838 0
-836 -839 0
-836 -840 0
-836 -841 0
-836 -842 0
-836 -843 0
-836 -844 0
-836 -845 0
-836 -846 0
-836 -847 0
-836 -848 0
-836 -849 0
-836 -850 0
-836 -851 0
-836 -852 0
-836 -853 0
-836 -854 0
-836 -855 0
-836 -856 0
-836 -857 0
-836 -858 0
-836 -859 0
-836 -860 0
-836 -861 0
-836 -862 0
-836 -863 0
-836 -864 0
-836 -865 0
-836 -866 0
-836 -867 0
-836 -868 0
-836 -869 0
-836 -870 0
-836 -871 0
-836 -872 0
-836 -873 0
-836 -874 0
-836 -875 0
-836 -876 0
-836 -877 0
-836 -878 0
-836 -879 0
-836 -880 0
-836 -881 0
-836 -882 0
-836 -883 0
-836 -884 0
-836 -885 0
-836 -886 0
-836 -887 0
-836 -888 0
-836 -889 0
-836 -890 0
-836 -891 0
-836 -892 0
-836 -893 0
-836 -894 0
-836 -895 0
-836 -896 0
-836 -897 0
-836 -898 0
-836 -899 0
-836 -900 0
-836 -901 0
-836 -902 0
-836 -903 0
-836 -904 0
-836 -905 0
-836 -906 0
-836 -907 0
-836 -908 0
-836 -909 0
-836 -910 0
-836 -911 0
-836 -912 0
-836 -913 0
-837 -838 0
-837 -839 0
-837 -840 0
-837 -841 0
-837 -842 0
-837 -843 0
-837 -844 0
-837 -845 0
-837 -846 0
-837 -847 0
-837 -848 0
-837 -849 0
-837 -850 0
-837 -851 0
-837 -852 0
-837 -853 0
-837 -854 0
-837 -855 0
-837 -856 0
-837 -857 0
-837 -858 0
-837 -859 0
-837 -860 0
-837 -861 0
-837 -862 0
-837 -863 0
-837 -864 0
-837 -865 0
-837 -866 0
-837 -867 0
-837 -868 0
-837 -869 0
-837 -870 0
-837 -871 0
-837 -872 0
-837 -873 0
-837 -874 0
-837 -875 0
-837 -876 0
-837 -877 0
-837 -878 0
-837 -879 0
-837 -880 0
-837 -881 0
-837 -882 0
-837 -883 0
-837 -884 0
-837 -885 0
-837 -886 0
-837 -887 0
-837 -888 0
-837 -889 0
-837 -890 0
-837 -891 0
-837 -892 0
-837 -893 0
-837 -894 0
-837 -895 0
-837 -896 0
-837 -897 0
-837 -898 0
-837 -899 0
-837 -900 0
-837 -901 0
-837 -902 0
-837 -903 0
-837 -904 0
-837 -905 0
-837 -906 0
-837 -907 0
-837 -908 0
-837 -909 0
-837 -910 0
-837 -911 0
-837 -912 0
-837 -913 0
-838 -839 0
-838 -840 0
-838 -841 0
-838 -842 0
-838 -843 0
-838 -844 0
-838 -845 0
-838 -846 0
-838 -847 0
-838 -848 0
-838 -849 0
-838 -850 0
-838 -851 0
-838 -852 0
-838 -853 0
-838 -854 0
-838 -855 0
-838 -856 0
-838 -857 0
-838 -858 0
-838 -859 0
-838 -860 0
-838 -861 0
-838 -862 0
-838 -863 0
-838 -864 0
-838 -865 0
-838 -866 0
-838 -867 0
-838 -868 0
-838 -869 0
-838 -870 0
-838 -871 0
-838 -872 0
-838 -873 0
-838 -874 0
-838 -875 0
-838 -876 0
-838 -877 0
-838 -878 0
-838 -879 0
-838 -880 0
-838 -881 0
-838 -882 0
-838 -883 0
-838 -884 0
-838 -885 0
-838 -886 0
-838 -887 0
-838 -888 0
-838 -889 0
-838 -890 0
-838 -891 0
-838 -892 0
-838 -893 0
-838 -894 0
-838 -895 0
-838 -896 0
-838 -897 0
-838 -898 0
-838 -899 0
-838 -900 0
-838 -901 0
-838 -902 0
-838 -903 0
-838 -904 0
-838 -905 0
-838 -906 0
-838 -907 0
-838 -908 0
-838 -909 0
-838 -910 0
-838 -911 0
-838 -912 0
-838 -913 0
-839 -840 0
-839 -841 0
-839 -842 0
-839 -843 0
-839 -844 0
-839 -845 0
-839 -846 0
-839 -847 0
-839 -848 0
-839 -849 0
-839 -850 0
-839 -851 0
-839 -852 0
-839 -853 0
-839 -854 0
-839 -855 0
-839 -856 0
-839 -857 0
-839 -858 0
-839 -859 0
-839 -860 0
-839 -861 0
-839 -862 0
-839 -863 0
-839 -864 0
-839 -865 0
-839 -866 0
-839 -867 0
-839 -868 0
-839 -869 0
-839 -870 0
-839 -871 0
-839 -872 0
-839 -873 0
-839 -874 0
-839 -875 0
-839 -876 0
-839 -877 0
-839 -878 0
-839 -879 0
-839 -880 0
-839 -881 0
-839 -882 0
-839 -883 0
-839 -884 0
-839 -885 0
-839 -886 0
-839 -887 0
-839 -888 0
-839 -889 0
-839 -890 0
-839 -891 0
-839 -892 0
-839 -893 0
-839 -894 0
-839 -895 0
-839 -896 0
-839 -897 0
-839 -898 0
-839 -899 0
-839 -900 0
-839 -901 0
-839 -902 0
-839 -903 0
-839 -904 0
-839 -905 0
-839 -906 0
-839 -907 0
-839 -908 0
-839 -909 0
-839 -910 0
-839 -911 0
-839 -912 0
-839 -913 0
-840 -841 0
-840 -842 0
-840 -843 0
-840 -844 0
-840 -845 0
-840 -846 0
-840 -847 0
-840 -848 0
-840 -849 0
-840 -850 0
-840 -851 0
-840 -852 0
-840 -853 0
-840 -854 0
-840 -855 0
-840 -856 0
-840 -857 0
-840 -858 0
-840 -859 0
-840 -860 0
-840 -861 0
-840 -862 0
-840 -863 0
-840 -864 0
-840 -865 0
-840 -866 0
-840 -867 0
-840 -868 0
-840 -869 0
-840 -870 0
-840 -871 0
-840 -872 0
-840 -873 0
-840 -874 0
-840 -875 0
-840 -876 0
-840 -877 0
-840 -878 0
-840 -879 0
-840 -880 0
-840 -881 0
-840 -882 0
-840 -883 0
-840 -884 0
-840 -885 0
-840 -886 0
-840 -887 0
-840 -888 0
-840 -889 0
-840 -890 0
-840 -891 0
-840 -892 0
-840 -893 0
-840 -894 0
-840 -895 0
-840 -896 0
-840 -897 0
-840 -898 0
-840 -899 0
-840 -900 0
-840 -901 0
-840 -902 0
-840 -903 0
-840 -904 0
-840 -905 0
-840 -906 0
-840 -907 0
-840 -908 0
-840 -909 0
-840 -910 0
-840 -911 0
-840 -912 0
-840 -913 0
-841 -842 0
-841 -843 0
-841 -844 0
-841 -845 0
-841 -846 0
-841 -847 0
-841 -848 0
-841 -849 0
-841 -850 0
-841 -851 0
-841 -852 0
-841 -853 0
-841 -854 0
-841 -855 0
-841 -856 0
-841 -857 0
-841 -858 0
-841 -859 0
-841 -860 0
-841 -861 0
-841 -862 0
-841 -863 0
-841 -864 0
-841 -865 0
-841 -866 0
-841 -867 0
-841 -868 0
-841 -869 0
-841 -870 0
-841 -871 0
-841 -872 0
-841 -873 0
-841 -874 0
-841 -875 0
-841 -876 0
-841 -877 0
-841 -878 0
-841 -879 0
-841 -880 0
-841 -881 0
-841 -882 0
-841 -883 0
-841 -884 0
-841 -885 0
-841 -886 0
-841 -887 0
-841 -888 0
-841 -889 0
-841 -890 0
-841 -891 0
-841 -892 0
-841 -893 0
-841 -894 0
-841 -895 0
-841 -896 0
-841 -897 0
-841 -898 0
-841 -899 0
-841 -900 0
-841 -901 0
-841 -902 0
-841 -903 0
-841 -904 0
-841 -905 0
-841 -906 0
-841 -907 0
-841 -908 0
-841 -909 0
-841 -910 0
-841 -911 0
-841 -912 0
-841 -913 0
-842 -843 0
-842 -844 0
-842 -845 0
-842 -846 0
-842 -847 0
-842 -848 0
-842 -849 0
-842 -850 0
-842 -851 0
-842 -852 0
-842 -853 0
-842 -854 0
-842 -855 0
-842 -856 0
-842 -857 0
-842 -858 0
-842 -859 0
-842 -860 0
-842 -861 0
-842 -862 0
-842 -863 0
-842 -864 0
-842 -865 0
-842 -866 0
-842 -867 0
-842 -868 0
-842 -869 0
-842 -870 0
-842 -871 0
-842 -872 0
-842 -873 0
-842 -874 0
-842 -875 0
-842 -876 0
-842 -877 0
-842 -878 0
-842 -879 0
-842 -880 0
-842 -881 0
-842 -882 0
-842 -883 0
-842 -884 0
-842 -885 0
-842 -886 0
-842 -887 0
-842 -888 0
-842 -889 0
-842 -890 0
-842 -891 0
-842 -892 0
-842 -893 0
-842 -894 0
-842 -895 0
-842 -896 0
-842 -897 0
-842 -898 0
-842 -899 0
-842 -900 0
-842 -901 0
-842 -902 0
-842 -903 0
-842 -904 0
-842 -905 0
-842 -906 0
-842 -907 0
-842 -908 0
-842 -909 0
-842 -910 0
-842 -911 0
-842 -912 0
-842 -913 0
-843 -844 0
-843 -845 0
-843 -846 0
-843 -847 0
-843 -848 0
-843 -849 0
-843 -850 0
-843 -851 0
-843 -852 0
-843 -853 0
-843 -854 0
-843 -855 0
-843 -856 0
-843 -857 0
-843 -858 0
-843 -859 0
-843 -860 0
-843 -861 0
-843 -862 0
-843 -863 0
-843 -864 0
-843 -865 0
-843 -866 0
-843 -867 0
-843 -868 0
-843 -869 0
-843 -870 0
-843 -871 0
-843 -872 0
-843 -873 0
-843 -874 0
-843 -875 0
-843 -876 0
-843 -877 0
-843 -878 0
-843 -879 0
-843 -880 0
-843 -881 0
-843 -882 0
-843 -883 0
-843 -884 0
-843 -885 0
-843 -886 0
-843 -887 0
-843 -888 0
-843 -889 0
-843 -890 0
-843 -891 0
-843 -892 0
-843 -893 0
-843 -894 0
-843 -895 0
-843 -896 0
-843 -897 0
-843 -898 0
-843 -899 0
-843 -900 0
-843 -901 0
-843 -902 0
-843 -903 0
-843 -904 0
-843 -905 0
-843 -906 0
-843 -907 0
-843 -908 0
-843 -909 0
-843 -910 0
-843 -911 0
-843 -912 0
-843 -913 0
-844 -845 0
-844 -846 0
-844 -847 0
-844 -848 0
-844 -849 0
-844 -850 0
-844 -851 0
-844 -852 0
-844 -853 0
-844 -854 0
-844 -855 0
-844 -856 0
-844 -857 0
-844 -858 0
-844 -859 0
-844 -860 0
-844 -861 0
-844 -862 0
-844 -863 0
-844 -864 0
-844 -865 0
-844 -866 0
-844 -867 0
-844 -868 0
-844 -869 0
-844 -870 0
-844 -871 0
-844 -872 0
-844 -873 0
-844 -874 0
-844 -875 0
-844 -876 0
-844 -877 0
-844 -878 0
-844 -879 0
-844 -880 0
-844 -881 0
-844 -882 0
-844 -883 0
-844 -884 0
-844 -885 0
-844 -886 0
-844 -887 0
-844 -888 0
-844 -889 0
-844 -890 0
-844 -891 0
-844 -892 0
-844 -893 0
-844 -894 0
-844 -895 0
-844 -896 0
-844 -897 0
-844 -898 0
-844 -899 0
-844 -900 0
-844 -901 0
-844 -902 0
-844 -903 0
-844 -904 0
-844 -905 0
-844 -906 0
-844 -907 0
-844 -908 0
-844 -909 0
-844 -910 0
-844 -911 0
-844 -912 0
-844 -913 0
-845 -846 0
-845 -847 0
-845 -848 0
-845 -849 0
-845 -850 0
-845 -851 0
-845 -852 0
-845 -853 0
-845 -854 0
-845 -855 0
-845 -856 0
-845 -857 0
-845 -858 0
-845 -859 0
-845 -860 0
-845 -861 0
-845 -862 0
-845 -863 0
-845 -864 0
-845 -865 0
-845 -866 0
-845 -867 0
-845 -868 0
-845 -869 0
-845 -870 0
-845 -871 0
-845 -872 0
-845 -873 0
-845 -874 0
-845 -875 0
-845 -876 0
-845 -877 0
-845 -878 0
-845 -879 0
-845 -880 0
-845 -881 0
-845 -882 0
-845 -883 0
-845 -884 0
-845 -885 0
-845 -886 0
-845 -887 0
-845 -888 0
-845 -889 0
-845 -890 0
-845 -891 0
-845 -892 0
-845 -893 0
-845 -894 0
-845 -895 0
-845 -896 0
-845 -897 0
-845 -898 0
-845 -899 0
-845 -900 0
-845 -901 0
-845 -902 0
-845 -903 0
-845 -904 0
-845 -905 0
-845 -906 0
-845 -907 0
-845 -908 0
-845 -909 0
-845 -910 0
-845 -911 0
-845 -912 0
-845 -913 0
-846 -847 0
-846 -848 0
-846 -849 0
-846 -850 0
-846 -851 0
-846 -852 0
-846 -853 0
-846 -854 0
-846 -855 0
-846 -856 0
-846 -857 0
-846 -858 0
-846 -859 0
-846 -860 0
-846 -861 0
-846 -862 0
-846 -863 0
-846 -864 0
-846 -865 0
-846 -866 0
-846 -867 0
-846 -868 0
-846 -869 0
-846 -870 0
-846 -871 0
-846 -872 0
-846 -873 0
-846 -874 0
-846 -875 0
-846 -876 0
-846 -877 0
-846 -878 0
-846 -879 0
-846 -880 0
-846 -881 0
-846 -882 0
-846 -883 0
-846 -884 0
-846 -885 0
-846 -886 0
-846 -887 0
-846 -888 0
-846 -889 0
-846 -890 0
-846 -891 0
-846 -892 0
-846 -893 0
-846 -894 0
-846 -895 0
-846 -896 0
-846 -897 0
-846 -898 0
-846 -899 0
-846 -900 0
-846 -901 0
-846 -902 0
-846 -903 0
-846 -904 0
-846 -905 0
-846 -906 0
-846 -907 0
-846 -908 0
-846 -909 0
-846 -910 0
-846 -911 0
-846 -912 0
-846 -913 0
-847 -848 0
-847 -849 0
-847 -850 0
-847 -851 0
-847 -852 0
-847 -853 0
-847 -854 0
-847 -855 0
-847 -856 0
-847 -857 0
-847 -858 0
-847 -859 0
-847 -860 0
-847 -861 0
-847 -862 0
-847 -863 0
-847 -864 0
-847 -865 0
-847 -866 0
-847 -867 0
-847 -868 0
-847 -869 0
-847 -870 0
-847 -871 0
-847 -872 0
-847 -873 0
-847 -874 0
-847 -875 0
-847 -876 0
-847 -877 0
-847 -878 0
-847 -879 0
-847 -880 0
-847 -881 0
-847 -882 0
-847 -883 0
-847 -884 0
-847 -885 0
-847 -886 0
-847 -887 0
-847 -888 0
-847 -889 0
-847 -890 0
-847 -891 0
-847 -892 0
-847 -893 0
-847 -894 0
-847 -895 0
-847 -896 0
-847 -897 0
-847 -898 0
-847 -899 0
-847 -900 0
-847 -901 0
-847 -902 0
-847 -903 0
-847 -904 0
-847 -905 0
-847 -906 0
-847 -907 0
-847 -908 0
-847 -909 0
-847 -910 0
-847 -911 0
-847 -912 0
-847 -913 0
-848 -849 0
-848 -850 0
-848 -851 0
-848 -852 0
-848 -853 0
-848 -854 0
-848 -855 0
-848 -856 0
-848 -857 0
-848 -858 0
-848 -859 0
-848 -860 0
-848 -861 0
-848 -862 0
-848 -863 0
-848 -864 0
-848 -865 0
-848 -866 0
-848 -867 0
-848 -868 0
-848 -869 0
-848 -870 0
-848 -871 0
-848 -872 0
-848 -873 0
-848 -874 0
-848 -875 0
-848 -876 0
-848 -877 0
-848 -878 0
-848 -879 0
-848 -880 0
-848 -881 0
-848 -882 0
-848 -883 0
-848 -884 0
-848 -885 0
-848 -886 0
-848 -887 0
-848 -888 0
-848 -889 0
-848 -890 0
-848 -891 0
-848 -892 0
-848 -893 0
-848 -894 0
-848 -895 0
-848 -896 0
-848 -897 0
-848 -898 0
-848 -899 0
-848 -900 0
-848 -901 0
-848 -902 0
-848 -903 0
-848 -904 0
-848 -905 0
-848 -906 0
-848 -907 0
-848 -908 0
-848 -909 0
-848 -910 0
-848 -911 0
-848 -912 0
-848 -913 0
-849 -850 0
-849 -851 0
-849 -852 0
-849 -853 0
-849 -854 0
-849 -855 0
-849 -856 0
-849 -857 0
-849 -858 0
-849 -859 0
-849 -860 0
-849 -861 0
-849 -862 0
-849 -863 0
-849 -864 0
-849 -865 0
-849 -866 0
-849 -867 0
-849 -868 0
-849 -869 0
-849 -870 0
-849 -871 0
-849 -872 0
-849 -873 0
-849 -874 0
-849 -875 0
-849 -876 0
-849 -877 0
-849 -878 0
-849 -879 0
-849 -880 0
-849 -881 0
-849 -882 0
-849 -883 0
-849 -884 0
-849 -885 0
-849 -886 0
-849 -887 0
-849 -888 0
-849 -889 0
-849 -890 0
-849 -891 0
-849 -892 0
-849 -893 0
-849 -894 0
-849 -895 0
-849 -896 0
-849 -897 0
-849 -898 0
-849 -899 0
-849 -900 0
-849 -901 0
-849 -902 0
-849 -903 0
-849 -904 0
-849 -905 0
-849 -906 0
-849 -907 0
-849 -908 0
-849 -909 0
-849 -910 0
-849 -911 0
-849 -912 0
-849 -913 0
-850 -851 0
-850 -852 0
-850 -853 0
-850 -854 0
-850 -855 0
-850 -856 0
-850 -857 0
-850 -858 0
-850 -859 0
-850 -860 0
-850 -861 0
-850 -862 0
-850 -863 0
-850 -864 0
-850 -865 0
-850 -866 0
-850 -867 0
-850 -868 0
-850 -869 0
-850 -870 0
-850 -871 0
-850 -872 0
-850 -873 0
-850 -874 0
-850 -875 0
-850 -876 0
-850 -877 0
-850 -878 0
-850 -879 0
-850 -880 0
-850 -881 0
-850 -882 0
-850 -883 0
-850 -884 0
-850 -885 0
-850 -886 0
-850 -887 0
-850 -888 0
-850 -889 0
-850 -890 0
-850 -891 0
-850 -892 0
-850 -893 0
-850 -894 0
-850 -895 0
-850 -896 0
-850 -897 0
-850 -898 0
-850 -899 0
-850 -900 0
-850 -901 0
-850 -902 0
-850 -903 0
-850 -904 0
-850 -905 0
-850 -906 0
-850 -907 0
-850 -908 0
-850 -909 0
-850 -910 0
-850 -911 0
-850 -912 0
-850 -913 0
-851 -852 0
-851 -853 0
-851 -854 0
-851 -855 0
-851 -856 0
-851 -857 0
-851 -858 0
-851 -859 0
-851 -860 0
-851 -861 0
-851 -862 0
-851 -863 0
-851 -864 0
-851 -865 0
-851 -866 0
-851 -867 0
-851 -868 0
-851 -869 0
-851 -870 0
-851 -871 0
-851 -872 0
-851 -873 0
-851 -874 0
-851 -875 0
-851 -876 0
-851 -877 0
-851 -878 0
-851 -879 0
-851 -880 0
-851 -881 0
-851 -882 0
-851 -883 0
-851 -884 0
-851 -885 0
-851 -886 0
-851 -887 0
-851 -888 0
-851 -889 0
-851 -890 0
-851 -891 0
-851 -892 0
-851 -893 0
-851 -894 0
-851 -895 0
-851 -896 0
-851 -897 0
-851 -898 0
-851 -899 0
-851 -900 0
-851 -901 0
-851 -902 0
-851 -903 0
-851 -904 0
-851 -905 0
-851 -906 0
-851 -907 0
-851 -908 0
-851 -909 0
-851 -910 0
-851 -911 0
-851 -912 0
-851 -913 0
-852 -853 0
-852 -854 0
-852 -855 0
-852 -856 0
-852 -857 0
-852 -858 0
-852 -859 0
-852 -860 0
-852 -861 0
-852 -862 0
-852 -863 0
-852 -864 0
-852 -865 0
-852 -866 0
-852 -867 0
-852 -868 0
-852 -869 0
-852 -870 0
-852 -871 0
-852 -872 0
-852 -873 0
-852 -874 0
-852 -875 0
-852 -876 0
-852 -877 0
-852 -878 0
-852 -879 0
-852 -880 0
-852 -881 0
-852 -882 0
-852 -883 0
-852 -884 0
-852 -885 0
-852 -886 0
-852 -887 0
-852 -888 0
-852 -889 0
-852 -890 0
-852 -891 0
-852 -892 0
-852 -893 0
-852 -894 0
-852 -895 0
-852 -896 0
-852 -897 0
-852 -898 0
-852 -899 0
-852 -900 0
-852 -901 0
-852 -902 0
-852 -903 0
-852 -904 0
-852 -905 0
-852 -906 0
-852 -907 0
-852 -908 0
-852 -909 0
-852 -910 0
-852 -911 0
-852 -912 0
-852 -913 0
-853 -854 0
-853 -855 0
-853 -856 0
-853 -857 0
-853 -858 0
-853 -859 0
-853 -860 0
-853 -861 0
-853 -862 0
-853 -863 0
-853 -864 0
-853 -865 0
-853 -866 0
-853 -867 0
-853 -868 0
-853 -869 0
-853 -870 0
-853 -871 0
-853 -872 0
-853 -873 0
-853 -874 0
-853 -875 0
-853 -876 0
-853 -877 0
-853 -878 0
-853 -879 0
-853 -880 0
-853 -881 0
-853 -882 0
-853 -883 0
-853 -884 0
-853 -885 0
-853 -886 0
-853 -887 0
-853 -888 0
-853 -889 0
-853 -890 0
-853 -891 0
-853 -892 0
-853 -893 0
-853 -894 0
-853 -895 0
-853 -896 0
-853 -897 0
-853 -898 0
-853 -899 0
-853 -900 0
-853 -901 0
-853 -902 0
-853 -903 0
-853 -904 0
-853 -905 0
-853 -906 0
-853 -907 0
-853 -908 0
-853 -909 0
-853 -910 0
-853 -911 0
-853 -912 0
-853 -913 0
-854 -855 0
-854 -856 0
-854 -857 0
-854 -858 0
-854 -859 0
-854 -860 0
-854 -861 0
-854 -862 0
-854 -863 0
-854 -864 0
-854 -865 0
-854 -866 0
-854 -867 0
-854 -868 0
-854 -869 0
-854 -870 0
-854 -871 0
-854 -872 0
-854 -873 0
-854 -874 0
-854 -875 0
-854 -876 0
-854 -877 0
-854 -878 0
-854 -879 0
-854 -880 0
-854 -881 0
-854 -882 0
-854 -883 0
-854 -884 0
-854 -885 0
-854 -886 0
-854 -887 0
-854 -888 0
-854 -889 0
-854 -890 0
-854 -891 0
-854 -892 0
-854 -893 0
-854 -894 0
-854 -895 0
-854 -896 0
-854 -897 0
-854 -898 0
-854 -899 0
-854 -900 0
-854 -901 0
-854 -902 0
-854 -903 0
-854 -904 0
-854 -905 0
-854 -906 0
-854 -907 0
-854 -908 0
-854 -909 0
-854 -910 0
-854 -911 0
-854 -912 0
-854 -913 0
-855 -856 0
-855 -857 0
-855 -858 0
-855 -859 0
-855 -860 0
-855 -861 0
-855 -862 0
-855 -863 0
-855 -864 0
-855 -865 0
-855 -866 0
-855 -867 0
-855 -868 0
-855 -869 0
-855 -870 0
-855 -871 0
-855 -872 0
-855 -873 0
-855 -874 0
-855 -875 0
-855 -876 0
-855 -877 0
-855 -878 0
-855 -879 0
-855 -880 0
-855 -881 0
-855 -882 0
-855 -883 0
-855 -884 0
-855 -885 0
-855 -886 0
-855 -887 0
-855 -888 0
-855 -889 0
-855 -890 0
-855 -891 0
-855 -892 0
-855 -893 0
-855 -894 0
-855 -895 0
-855 -896 0
-855 -897 0
-855 -898 0
-855 -899 0
-855 -900 0
-855 -901 0
-855 -902 0
-855 -903 0
-855 -904 0
-855 -905 0
-855 -906 0
-855 -907 0
-855 -908 0
-855 -909 0
-855 -910 0
-855 -911 0
-855 -912 0
-855 -913 0
-856 -857 0
-856 -858 0
-856 -859 0
-856 -860 0
-856 -861 0
-856 -862 0
-856 -863 0
-856 -864 0
-856 -865 0
-856 -866 0
-856 -867 0
-856 -868 0
-856 -869 0
-856 -870 0
-856 -871 0
-856 -872 0
-856 -873 0
-856 -874 0
-856 -875 0
-856 -876 0
-856 -877 0
-856 -878 0
-856 -879 0
-856 -880 0
-856 -881 0
-856 -882 0
-856 -883 0
-856 -884 0
-856 -885 0
-856 -886 0
-856 -887 0
-856 -888 0
-856 -889 0
-856 -890 0
-856 -891 0
-856 -892 0
-856 -893 0
-856 -894 0
-856 -895 0
-856 -896 0
-856 -897 0
-856 -898 0
-856 -899 0
-856 -900 0
-856 -901 0
-856 -902 0
-856 -903 0
-856 -904 0
-856 -905 0
-856 -906 0
-856 -907 0
-856 -908 0
-856 -909 0
-856 -910 0
-856 -911 0
-856 -912 0
-856 -913 0
-857 -858 0
-857 -859 0
-857 -860 0
-857 -861 0
-857 -862 0
-857 -863 0
-857 -864 0
-857 -865 0
-857 -866 0
-857 -867 0
-857 -868 0
-857 -869 0
-857 -870 0
-857 -871 0
-857 -872 0
-857 -873 0
-857 -874 0
-857 -875 0
-857 -876 0
-857 -877 0
-857 -878 0
-857 -879 0
-857 -880 0
-857 -881 0
-857 -882 0
-857 -883 0
-857 -884 0
-857 -885 0
-857 -886 0
-857 -887 0
-857 -888 0
-857 -889 0
-857 -890 0
-857 -891 0
-857 -892 0
-857 -893 0
-857 -894 0
-857 -895 0
-857 -896 0
-857 -897 0
-857 -898 0
-857 -899 0
-857 -900 0
-857 -901 0
-857 -902 0
-857 -903 0
-857 -904 0
-857 -905 0
-857 -906 0
-857 -907 0
-857 -908 0
-857 -909 0
-857 -910 0
-857 -911 0
-857 -912 0
-857 -913 0
-858 -859 0
-858 -860 0
-858 -861 0
-858 -862 0
-858 -863 0
-858 -864 0
-858 -865 0
-858 -866 0
-858 -867 0
-858 -868 0
-858 -869 0
-858 -870 0
-858 -871 0
-858 -872 0
-858 -873 0
-858 -874 0
-858 -875 0
-858 -876 0
-858 -877 0
-858 -878 0
-858 -879 0
-858 -880 0
-858 -881 0
-858 -882 0
-858 -883 0
-858 -884 0
-858 -885 0
-858 -886 0
-858 -887 0
-858 -888 0
-858 -889 0
-858 -890 0
-858 -891 0
-858 -892 0
-858 -893 0
-858 -894 0
-858 -895 0
-858 -896 0
-858 -897 0
-858 -898 0
-858 -899 0
-858 -900 0
-858 -901 0
-858 -902 0
-858 -903 0
-858 -904 0
-858 -905 0
-858 -906 0
-858 -907 0
-858 -908 0
-858 -909 0
-858 -910 0
-858 -911 0
-858 -912 0
-858 -913 0
-859 -860 0
-859 -861 0
-859 -862 0
-859 -863 0
-859 -864 0
-859 -865 0
-859 -866 0
-859 -867 0
-859 -868 0
-859 -869 0
-859 -870 0
-859 -871 0
-859 -872 0
-859 -873 0
-859 -874 0
-859 -875 0
-859 -876 0
-859 -877 0
-859 -878 0
-859 -879 0
-859 -880 0
-859 -881 0
-859 -882 0
-859 -883 0
-859 -884 0
-859 -885 0
-859 -886 0
-859 -887 0
-859 -888 0
-859 -889 0
-859 -890 0
-859 -891 0
-859 -892 0
-859 -893 0
-859 -894 0
-859 -895 0
-859 -896 0
-859 -897 0
-859 -898 0
-859 -899 0
-859 -900 0
-859 -901 0
-859 -902 0
-859 -903 0
-859 -904 0
-859 -905 0
-859 -906 0
-859 -907 0
-859 -908 0
-859 -909 0
-859 -910 0
-859 -911 0
-859 -912 0
-859 -913 0
-860 -861 0
-860 -862 0
-860 -863 0
-860 -864 0
-860 -865 0
-860 -866 0
-860 -867 0
-860 -868 0
-860 -869 0
-860 -870 0
-860 -871 0
-860 -872 0
-860 -873 0
-860 -874 0
-860 -875 0
-860 -876 0
-860 -877 0
-860 -878 0
-860 -879 0
-860 -880 0
-860 -881 0
-860 -882 0
-860 -883 0
-860 -884 0
-860 -885 0
-860 -886 0
-860 -887 0
-860 -888 0
-860 -889 0
-860 -890 0
-860 -891 0
-860 -892 0
-860 -893 0
-860 -894 0
-860 -895 0
-860 -896 0
-860 -897 0
-860 -898 0
-860 -899 0
-860 -900 0
-860 -901 0
-860 -902 0
-860 -903 0
-860 -904 0
-860 -905 0
-860 -906 0
-860 -907 0
-860 -908 0
-860 -909 0
-860 -910 0
-860 -911 0
-860 -912 0
-860 -913 0
-861 -862 0
-861 -863 0
-861 -864 0
-861 -865 0
-861 -866 0
-861 -867 0
-861 -868 0
-861 -869 0
-861 -870 0
-861 -871 0
-861 -872 0
-861 -873 0
-861 -874 0
-861 -875 0
-861 -876 0
-861 -877 0
-861 -878 0
-861 -879 0
-861 -880 0
-861 -881 0
-861 -882 0
-861 -883 0
-861 -884 0
-861 -885 0
-861 -886 0
-861 -887 0
-861 -888 0
-861 -889 0
-861 -890 0
-861 -891 0
-861 -892 0
-861 -893 0
-861 -894 0
-861 -895 0
-861 -896 0
-861 -897 0
-861 -898 0
-861 -899 0
-861 -900 0
-861 -901 0
-861 -902 0
-861 -903 0
-861 -904 0
-861 -905 0
-861 -906 0
-861 -907 0
-861 -908 0
-861 -909 0
-861 -910 0
-861 -911 0
-861 -912 0
-861 -913 0
-862 -863 0
-862 -864 0
-862 -865 0
-862 -866 0
-862 -867 0
-862 -868 0
-862 -869 0
-862 -870 0
-862 -871 0
-862 -872 0
-862 -873 0
-862 -874 0
-862 -875 0
-862 -876 0
-862 -877 0
-862 -878 0
-862 -879 0
-862 -880 0
-862 -881 0
-862 -882 0
-862 -883 0
-862 -884 0
-862 -885 0
-862 -886 0
-862 -887 0
-862 -888 0
-862 -889 0
-862 -890 0
-862 -891 0
-862 -892 0
-862 -893 0
-862 -894 0
-862 -895 0
-862 -896 0
-862 -897 0
-862 -898 0
-862 -899 0
-862 -900 0
-862 -901 0
-862 -902 0
-862 -903 0
-862 -904 0
-862 -905 0
-862 -906 0
-862 -907 0
-862 -908 0
-862 -909 0
-862 -910 0
-862 -911 0
-862 -912 0
-862 -913 0
-863 -864 0
-863 -865 0
-863 -866 0
-863 -867 0
-863 -868 0
-863 -869 0
-863 -870 0
-863 -871 0
-863 -872 0
-863 -873 0
-863 -874 0
-863 -875 0
-863 -876 0
-863 -877 0
-863 -878 0
-863 -879 0
-863 -880 0
-863 -881 0
-863 -882 0
-863 -883 0
-863 -884 0
-863 -885 0
-863 -886 0
-863 -887 0
-863 -888 0
-863 -889 0
-863 -890 0
-863 -891 0
-863 -892 0
-863 -893 0
-863 -894 0
-863 -895 0
-863 -896 0
-863 -897 0
-863 -898 0
-863 -899 0
-863 -900 0
-863 -901 0
-863 -902 0
-863 -903 0
-863 -904 0
-863 -905 0
-863 -906 0
-863 -907 0
-863 -908 0
-863 -909 0
-863 -910 0
-863 -911 0
-863 -912 0
-863 -913 0
-864 -865 0
-864 -866 0
-864 -867 0
-864 -868 0
-864 -869 0
-864 -870 0
-864 -871 0
-864 -872 0
-864 -873 0
-864 -874 0
-864 -875 0
-864 -876 0
-864 -877 0
-864 -878 0
-864 -879 0
-864 -880 0
-864 -881 0
-864 -882 0
-864 -883 0
-864 -884 0
-864 -885 0
-864 -886 0
-864 -887 0
-864 -888 0
-864 -889 0
-864 -890 0
-864 -891 0
-864 -892 0
-864 -893 0
-864 -894 0
-864 -895 0
-864 -896 0
-864 -897 0
-864 -898 0
-864 -899 0
-864 -900 0
-864 -901 0
-864 -902 0
-864 -903 0
-864 -904 0
-864 -905 0
-864 -906 0
-864 -907 0
-864 -908 0
-864 -909 0
-864 -910 0
-864 -911 0
-864 -912 0
-864 -913 0
-865 -866 0
-865 -867 0
-865 -868 0
-865 -869 0
-865 -870 0
-865 -871 0
-865 -872 0
-865 -873 0
-865 -874 0
-865 -875 0
-865 -876 0
-865 -877 0
-865 -878 0
-865 -879 0
-865 -880 0
-865 -881 0
-865 -882 0
-865 -883 0
-865 -884 0
-865 -885 0
-865 -886 0
-865 -887 0
-865 -888 0
-865 -889 0
-865 -890 0
-865 -891 0
-865 -892 0
-865 -893 0
-865 -894 0
-865 -895 0
-865 -896 0
-865 -897 0
-865 -898 0
-865 -899 0
-865 -900 0
-865 -901 0
-865 -902 0
-865 -903 0
-865 -904 0
-865 -905 0
-865 -906 0
-865 -907 0
-865 -908 0
-865 -909 0
-865 -910 0
-865 -911 0
-865 -912 0
-865 -913 0
-866 -867 0
-866 -868 0
-866 -869 0
-866 -870 0
-866 -871 0
-866 -872 0
-866 -873 0
-866 -874 0
-866 -875 0
-866 -876 0
-866 -877 0
-866 -878 0
-866 -879 0
-866 -880 0
-866 -881 0
-866 -882 0
-866 -883 0
-866 -884 0
-866 -885 0
-866 -886 0
-866 -887 0
-866 -888 0
-866 -889 0
-866 -890 0
-866 -891 0
-866 -892 0
-866 -893 0
-866 -894 0
-866 -895 0
-866 -896 0
-866 -897 0
-866 -898 0
-866 -899 0
-866 -900 0
-866 -901 0
-866 -902 0
-866 -903 0
-866 -904 0
-866 -905 0
-866 -906 0
-866 -907 0
-866 -908 0
-866 -909 0
-866 -910 0
-866 -911 0
-866 -912 0
-866 -913 0
-867 -868 0
-867 -869 0
-867 -870 0
-867 -871 0
-867 -872 0
-867 -873 0
-867 -874 0
-867 -875 0
-867 -876 0
-867 -877 0
-867 -878 0
-867 -879 0
-867 -880 0
-867 -881 0
-867 -882 0
-867 -883 0
-867 -884 0
-867 -885 0
-867 -886 0
-867 -887 0
-867 -888 0
-867 -889 0
-867 -890 0
-867 -891 0
-867 -892 0
-867 -893 0
-867 -894 0
-867 -895 0
-867 -896 0
-867 -897 0
-867 -898 0
-867 -899 0
-867 -900 0
-867 -901 0
-867 -902 0
-867 -903 0
-867 -904 0
-867 -905 0
-867 -906 0
-867 -907 0
-867 -908 0
-867 -909 0
-867 -910 0
-867 -911 0
-867 -912 0
-867 -913 0
-868 -869 0
-868 -870 0
-868 -871 0
-868 -872 0
-868 -873 0
-868 -874 0
-868 -875 0
-868 -876 0
-868 -877 0
-868 -878 0
-868 -879 0
-868 -880 0
-868 -881 0
-868 -882 0
-868 -883 0
-868 -884 0
-868 -885 0
-868 -886 0
-868 -887 0
-868 -888 0
-868 -889 0
-868 -890 0
-868 -891 0
-868 -892 0
-868 -893 0
-868 -894 0
-868 -895 0
-868 -896 0
-868 -897 0
-868 -898 0
-868 -899 0
-868 -900 0
-868 -901 0
-868 -902 0
-868 -903 0
-868 -904 0
-868 -905 0
-868 -906 0
-868 -907 0
-868 -908 0
-868 -909 0
-868 -910 0
-868 -911 0
-868 -912 0
-868 -913 0
-869 -870 0
-869 -871 0
-869 -872 0
-869 -873 0
-869 -874 0
-869 -875 0
-869 -876 0
-869 -877 0
-869 -878 0
-869 -879 0
-869 -880 0
-869 -881 0
-869 -882 0
-869 -883 0
-869 -884 0
-869 -885 0
-869 -886 0
-869 -887 0
-869 -888 0
-869 -889 0
-869 -890 0
-869 -891 0
-869 -892 0
-869 -893 0
-869 -894 0
-869 -895 0
-869 -896 0
-869 -897 0
-869 -898 0
-869 -899 0
-869 -900 0
-869 -901 0
-869 -902 0
-869 -903 0
-869 -904 0
-869 -905 0
-869 -906 0
-869 -907 0
-869 -908 0
-869 -909 0
-869 -910 0
-869 -911 0
-869 -912 0
-869 -913 0
-870 -871 0
-870 -872 0
-870 -873 0
-870 -874 0
-870 -875 0
-870 -876 0
-870 -877 0
-870 -878 0
-870 -879 0
-870 -880 0
-870 -881 0
-870 -882 0
-870 -883 0
-870 -884 0
-870 -885 0
-870 -886 0
-870 -887 0
-870 -888 0
-870 -889 0
-870 -890 0
-870 -891 0
-870 -892 0
-870 -893 0
-870 -894 0
-870 -895 0
-870 -896 0
-870 -897 0
-870 -898 0
-870 -899 0
-870 -900 0
-870 -901 0
-870 -902 0
-870 -903 0
-870 -904 0
-870 -905 0
-870 -906 0
-870 -907 0
-870 -908 0
-870 -909 0
-870 -910 0
-870 -911 0
-870 -912 0
-870 -913 0
-871 -872 0
-871 -873 0
-871 -874 0
-871 -875 0
-871 -876 0
-871 -877 0
-871 -878 0
-871 -879 0
-871 -880 0
-871 -881 0
-871 -882 0
-871 -883 0
-871 -884 0
-871 -885 0
-871 -886 0
-871 -887 0
-871 -888 0
-871 -889 0
-871 -890 0
-871 -891 0
-871 -892 0
-871 -893 0
-871 -894 0
-871 -895 0
-871 -896 0
-871 -897 0
-871 -898 0
-871 -899 0
-871 -900 0
-871 -901 0
-871 -902 0
-871 -903 0
-871 -904 0
-871 -905 0
-871 -906 0
-871 -907 0
-871 -908 0
-871 -909 0
-871 -910 0
-871 -911 0
-871 -912 0
-871 -913 0
-872 -873 0
-872 -874 0
-872 -875 0
-872 -876 0
-872 -877 0
-872 -878 0
-872 -879 0
-872 -880 0
-872 -881 0
-872 -882 0
-872 -883 0
-872 -884 0
-872 -885 0
-872 -886 0
-872 -887 0
-872 -888 0
-872 -889 0
-872 -890 0
-872 -891 0
-872 -892 0
-872 -893 0
-872 -894 0
-872 -895 0
-872 -896 0
-872 -897 0
-872 -898 0
-872 -899 0
-872 -900 0
-872 -901 0
-872 -902 0
-872 -903 0
-872 -904 0
-872 -905 0
-872 -906 0
-872 -907 0
-872 -908 0
-872 -909 0
-872 -910 0
-872 -911 0
-872 -912 0
-872 -913 0
-873 -874 0
-873 -875 0
-873 -876 0
-873 -877 0
-873 -878 0
-873 -879 0
-873 -880 0
-873 -881 0
-873 -882 0
-873 -883 0
-873 -884 0
-873 -885 0
-873 -886 0
-873 -887 0
-873 -888 0
-873 -889 0
-873 -890 0
-873 -891 0
-873 -892 0
-873 -893 0
-873 -894 0
-873 -895 0
-873 -896 0
-873 -897 0
-873 -898 0
-873 -899 0
-873 -900 0
-873 -901 0
-873 -902 0
-873 -903 0
-873 -904 0
-873 -905 0
-873 -906 0
-873 -907 0
-873 -908 0
-873 -909 0
-873 -910 0
-873 -911 0
-873 -912 0
-873 -913 0
-874 -875 0
-874 -876 0
-874 -877 0
-874 -878 0
-874 -879 0
-874 -880 0
-874 -881 0
-874 -882 0
-874 -883 0
-874 -884 0
-874 -885 0
-874 -886 0
-874 -887 0
-874 -888 0
-874 -889 0
-874 -890 0
-874 -891 0
-874 -892 0
-874 -893 0
-874 -894 0
-874 -895 0
-874 -896 0
-874 -897 0
-874 -898 0
-874 -899 0
-874 -900 0
-874 -901 0
-874 -902 0
-874 -903 0
-874 -904 0
-874 -905 0
-874 -906 0
-874 -907 0
-874 -908 0
-874 -909 0
-874 -910 0
-874 -911 0
-874 -912 0
-874 -913 0
-875 -876 0
-875 -877 0
-875 -878 0
-875 -879 0
-875 -880 0
-875 -881 0
-875 -882 0
-875 -883 0
-875 -884 0
-875 -885 0
-875 -886 0
-875 -887 0
-875 -888 0
-875 -889 0
-875 -890 0
-875 -891 0
-875 -892 0
-875 -893 0
-875 -894 0
-875 -895 0
-875 -896 0
-875 -897 0
-875 -898 0
-875 -899 0
-875 -900 0
-875 -901 0
-875 -902 0
-875 -903 0
-875 -904 0
-875 -905 0
-875 -906 0
-875 -907 0
-875 -908 0
-875 -909 0
-875 -910 0
-875 -911 0
-875 -912 0
-875 -913 0
-876 -877 0
-876 -878 0
-876 -879 0
-876 -880 0
-876 -881 0
-876 -882 0
-876 -883 0
-876 -884 0
-876 -885 0
-876 -886 0
-876 -887 0
-876 -888 0
-876 -889 0
-876 -890 0
-876 -891 0
-876 -892 0
-876 -893 0
-876 -894 0
-876 -895 0
-876 -896 0
-876 -897 0
-876 -898 0
-876 -899 0
-876 -900 0
-876 -901 0
-876 -902 0
-876 -903 0
-876 -904 0
-876 -905 0
-876 -906 0
-876 -907 0
-876 -908 0
-876 -909 0
-876 -910 0
-876 -911 0
-876 -912 0
-876 -913 0
-877 -878 0
-877 -879 0
-877 -880 0
-877 -881 0
-877 -882 0
-877 -883 0
-877 -884 0
-877 -885 0
-877 -886 0
-877 -887 0
-877 -888 0
-877 -889 0
-877 -890 0
-877 -891 0
-877 -892 0
-877 -893 0
-877 -894 0
-877 -895 0
-877 -896 0
-877 -897 0
-877 -898 0
-877 -899 0
-877 -900 0
-877 -901 0
-877 -902 0
-877 -903 0
-877 -904 0
-877 -905 0
-877 -906 0
-877 -907 0
-877 -908 0
-877 -909 0
-877 -910 0
-877 -911 0
-877 -912 0
-877 -913 0
-878 -879 0
-878 -880 0
-878 -881 0
-878 -882 0
-878 -883 0
-878 -884 0
-878 -885 0
-878 -886 0
-878 -887 0
-878 -888 0
-878 -889 0
-878 -890 0
-878 -891 0
-878 -892 0
-878 -893 0
-878 -894 0
-878 -895 0
-878 -896 0
-878 -897 0
-878 -898 0
-878 -899 0
-878 -900 0
-878 -901 0
-878 -902 0
-878 -903 0
-878 -904 0
-878 -905 0
-878 -906 0
-878 -907 0
-878 -908 0
-878 -909 0
-878 -910 0
-878 -911 0
-878 -912 0
-878 -913 0
-879 -880 0
-879 -881 0
-879 -882 0
-879 -883 0
-879 -884 0
-879 -885 0
-879 -886 0
-879 -887 0
-879 -888 0
-879 -889 0
-879 -890 0
-879 -891 0
-879 -892 0
-879 -893 0
-879 -894 0
-879 -895 0
-879 -896 0
-879 -897 0
-879 -898 0
-879 -899 0
-879 -900 0
-879 -901 0
-879 -902 0
-879 -903 0
-879 -904 0
-879 -905 0
-879 -906 0
-879 -907 0
-879 -908 0
-879 -909 0
-879 -910 0
-879 -911 0
-879 -912 0
-879 -913 0
-880 -881 0
-880 -882 0
-880 -883 0
-880 -884 0
-880 -885 0
-880 -886 0
-880 -887 0
-880 -888 0
-880 -889 0
-880 -890 0
-880 -891 0
-880 -892 0
-880 -893 0
-880 -894 0
-880 -895 0
-880 -896 0
-880 -897 0
-880 -898 0
-880 -899 0
-880 -900 0
-880 -901 0
-880 -902 0
-880 -903 0
-880 -904 0
-880 -905 0
-880 -906 0
-880 -907 0
-880 -908 0
-880 -909 0
-880 -910 0
-880 -911 0
-880 -912 0
-880 -913 0
-881 -882 0
-881 -883 0
-881 -884 0
-881 -885 0
-881 -886 0
-881 -887 0
-881 -888 0
-881 -889 0
-881 -890 0
-881 -891 0
-881 -892 0
-881 -893 0
-881 -894 0
-881 -895 0
-881 -896 0
-881 -897 0
-881 -898 0
-881 -899 0
-881 -900 0
-881 -901 0
-881 -902 0
-881 -903 0
-881 -904 0
-881 -905 0
-881 -906 0
-881 -907 0
-881 -908 0
-881 -909 0
-881 -910 0
-881 -911 0
-881 -912 0
-881 -913 0
-882 -883 0
-882 -884 0
-882 -885 0
-882 -886 0
-882 -887 0
-882 -888 0
-882 -889 0
-882 -890 0
-882 -891 0
-882 -892 0
-882 -893 0
-882 -894 0
-882 -895 0
-882 -896 0
-882 -897 0
-882 -898 0
-882 -899 0
-882 -900 0
-882 -901 0
-882 -902 0
-882 -903 0
-882 -904 0
-882 -905 0
-882 -906 0
-882 -907 0
-882 -908 0
-882 -909 0
-882 -910 0
-882 -911 0
-882 -912 0
-882 -913 0
-883 -884 0
-883 -885 0
-883 -886 0
-883 -887 0
-883 -888 0
-883 -889 0
-883 -890 0
-883 -891 0
-883 -892 0
-883 -893 0
-883 -894 0
-883 -895 0
-883 -896 0
-883 -897 0
-883 -898 0
-883 -899 0
-883 -900 0
-883 -901 0
-883 -902 0
-883 -903 0
-883 -904 0
-883 -905 0
-883 -906 0
-883 -907 0
-883 -908 0
-883 -909 0
-883 -910 0
-883 -911 0
-883 -912 0
-883 -913 0
-884 -885 0
-884 -886 0
-884 -887 0
-884 -888 0
-884 -889 0
-884 -890 0
-884 -891 0
-884 -892 0
-884 -893 0
-884 -894 0
-884 -895 0
-884 -896 0
-884 -897 0
-884 -898 0
-884 -899 0
-884 -900 0
-884 -901 0
-884 -902 0
-884 -903 0
-884 -904 0
-884 -905 0
-884 -906 0
-884 -907 0
-884 -908 0
-884 -909 0
-884 -910 0
-884 -911 0
-884 -912 0
-884 -913 0
-885 -886 0
-885 -887 0
-885 -888 0
-885 -889 0
-885 -890 0
-885 -891 0
-885 -892 0
-885 -893 0
-885 -894 0
-885 -895 0
-885 -896 0
-885 -897 0
-885 -898 0
-885 -899 0
-885 -900 0
-885 -901 0
-885 -902 0
-885 -903 0
-885 -904 0
-885 -905 0
-885 -906 0
-885 -907 0
-885 -908 0
-885 -909 0
-885 -910 0
-885 -911 0
-885 -912 0
-885 -913 0
-886 -887 0
-886 -888 0
-886 -889 0
-886 -890 0
-886 -891 0
-886 -892 0
-886 -893 0
-886 -894 0
-886 -895 0
-886 -896 0
-886 -897 0
-886 -898 0
-886 -899 0
-886 -900 0
-886 -901 0
-886 -902 0
-886 -903 0
-886 -904 0
-886 -905 0
-886 -906 0
-886 -907 0
-886 -908 0
-886 -909 0
-886 -910 0
-886 -911 0
-886 -912 0
-886 -913 0
-887 -888 0
-887 -889 0
-887 -890 0
-887 -891 0
-887 -892 0
-887 -893 0
-887 -894 0
-887 -895 0
-887 -896 0
-887 -897 0
-887 -898 0
-887 -899 0
-887 -900 0
-887 -901 0
-887 -902 0
-887 -903 0
-887 -904 0
-887 -905 0
-887 -906 0
-887 -907 0
-887 -908 0
-887 -909 0
-887 -910 0
-887 -911 0
-887 -912 0
-887 -913 0
-888 -889 0
-888 -890 0
-888 -891 0
-888 -892 0
-888 -893 0
-888 -894 0
-888 -895 0
-888 -896 0
-888 -897 0
-888 -898 0
-888 -899 0
-888 -900 0
-888 -901 0
-888 -902 0
-888 -903 0
-888 -904 0
-888 -905 0
-888 -906 0
-888 -907 0
-888 -908 0
-888 -909 0
-888 -910 0
-888 -911 0
-888 -912 0
-888 -913 0
-889 -890 0
-889 -891 0
-889 -892 0
-889 -893 0
-889 -894 0
-889 -895 0
-889 -896 0
-889 -897 0
-889 -898 0
-889 -899 0
-889 -900 0
-889 -901 0
-889 -902 0
-889 -903 0
-889 -904 0
-889 -905 0
-889 -906 0
-889 -907 0
-889 -908 0
-889 -909 0
-889 -910 0
-889 -911 0
-889 -912 0
-889 -913 0
-890 -891 0
-890 -892 0
-890 -893 0
-890 -894 0
-890 -895 0
-890 -896 0
-890 -897 0
-890 -898 0
-890 -899 0
-890 -900 0
-890 -901 0
-890 -902 0
-890 -903 0
-890 -904 0
-890 -905 0
-890 -906 0
-890 -907 0
-890 -908 0
-890 -909 0
-890 -910 0
-890 -911 0
-890 -912 0
-890 -913 0
-891 -892 0
-891 -893 0
-891 -894 0
-891 -895 0
-891 -896 0
-891 -897 0
-891 -898 0
-891 -899 0
-891 -900 0
-891 -901 0
-891 -902 0
-891 -903 0
-891 -904 0
-891 -905 0
-891 -906 0
-891 -907 0
-891 -908 0
-891 -909 0
-891 -910 0
-891 -911 0
-891 -912 0
-891 -913 0
-892 -893 0
-892 -894 0
-892 -895 0
-892 -896 0
-892 -897 0
-892 -898 0
-892 -899 0
-892 -900 0
-892 -901 0
-892 -902 0
-892 -903 0
-892 -904 0
-892 -905 0
-892 -906 0
-892 -907 0
-892 -908 0
-892 -909 0
-892 -910 0
-892 -911 0
-892 -912 0
-892 -913 0
-893 -894 0
-893 -895 0
-893 -896 0
-893 -897 0
-893 -898 0
-893 -899 0
-893 -900 0
-893 -901 0
-893 -902 0
-893 -903 0
-893 -904 0
-893 -905 0
-893 -906 0
-893 -907 0
-893 -908 0
-893 -909 0
-893 -910 0
-893 -911 0
-893 -912 0
-893 -913 0
-894 -895 0
-894 -896 0
-894 -897 0
-894 -898 0
-894 -899 0
-894 -900 0
-894 -901 0
-894 -902 0
-894 -903 0
-894 -904 0
-894 -905 0
-894 -906 0
-894 -907 0
-894 -908 0
-894 -909 0
-894 -910 0
-894 -911 0
-894 -912 0
-894 -913 0
-895 -896 0
-895 -897 0
-895 -898 0
-895 -899 0
-895 -900 0
-895 -901 0
-895 -902 0
-895 -903 0
-895 -904 0
-895 -905 0
-895 -906 0
-895 -907 0
-895 -908 0
-895 -909 0
-895 -910 0
-895 -911 0
-895 -912 0
-895 -913 0
-896 -897 0
-896 -898 0
-896 -899 0
-896 -900 0
-896 -901 0
-896 -902 0
-896 -903 0
-896 -904 0
-896 -905 0
-896 -906 0
-896 -907 0
-896 -908 0
-896 -909 0
-896 -910 0
-896 -911 0
-896 -912 0
-896 -913 0
-897 -898 0
-897 -899 0
-897 -900 0
-897 -901 0
-897 -902 0
-897 -903 0
-897 -904 0
-897 -905 0
-897 -906 0
-897 -907 0
-897 -908 0
-897 -909 0
-897 -910 0
-897 -911 0
-897 -912 0
-897 -913 0
-898 -899 0
-898 -900 0
-898 -901 0
-898 -902 0
-898 -903 0
-898 -904 0
-898 -905 0
-898 -906 0
-898 -907 0
-898 -908 0
-898 -909 0
-898 -910 0
-898 -911 0
-898 -912 0
-898 -913 0
-899 -900 0
-899 -901 0
-899 -902 0
-899 -903 0
-899 -904 0
-899 -905 0
-899 -906 0
-899 -907 0
-899 -908 0
-899 -909 0
-899 -910 0
-899 -911 0
-899 -912 0
-899 -913 0
-900 -901 0
-900 -902 0
-900 -903 0
-900 -904 0
-900 -905 0
-900 -906 0
-900 -907 0
-900 -908 0
-900 -909 0
-900 -910 0
-900 -911 0
-900 -912 0
-900 -913 0
-901 -902 0
-901 -903 0
-901 -904 0
-901 -905 0
-901 -906 0
-901 -907 0
-901 -908 0
-901 -909 0
-901 -910 0
-901 -911 0
-901 -912 0
-901 -913 0
-902 -903 0
-902 -904 0
-902 -905 0
-902 -906 0
-902 -907 0
-902 -908 0
-902 -909 0
-902 -910 0
-902 -911 0
-902 -912 0
-902 -913 0
-903 -904 0
-903 -905 0
-903 -906 0
-903 -907 0
-903 -908 0
-903 -909 0
-903 -910 0
-903 -911 0
-903 -912 0
-903 -913 0
-904 -905 0
-904 -906 0
-904 -907 0
-904 -908 0
-904 -909 0
-904 -910 0
-904 -911 0
-904 -912 0
-904 -913 0
-905 -906 0
-905 -907 0
-905 -908 0
-905 -909 0
-905 -910 0
-905 -911 0
-905 -912 0
-905 -913 0
-906 -907 0
-906 -908 0
-906 -909 0
-906 -910 0
-906 -911 0
-906 -912 0
-906 -913 0
-907 -908 0
-907 -909 0
-907 -910 0
-907 -911 0
-907 -912 0
-907 -913 0
-908 -909 0
-908 -910 0
-908 -911 0
-908 -912 0
-908 -913 0
-909 -910 0
-909 -911 0
-909 -912 0
-909 -913 0
-910 -911 0
-910 -912 0
-910 -913 0
-911 -912 0
-911 -913 0
-912 -913 0
-150 299 830 831 832 833 834 835 836 837 838 839 840 841 842 843 844 845 846 847 848 849 850 851 852 853 0
150 -299 830 831 832 833 834 835 836 837 838 839 840 841 842 843 844 845 846 847 848 849 850 851 852 853 0
-151 300 830 831 832 833 834 835 836 837 838 839 840 841 842 843 844 845 846 847 848 849 850 851 852 853 0
151 -300 830 831 832 833 834 835 836 837 838 839 840 841 842 843 844 845 846 847 848 849 850 851 852 853 0
-152 301 830 831 832 833 834 835 836 837 838 839 840 841 842 843 844 845 846 847 848 849 850 851 852 853 0
152 -301 830 831 832 833 834 835 836 837 838 839 840 841 842 843 844 845 846 847 848 849 850 851 852 853 0
-153 302 830 831 832 833 834 835 836 837 838 839 840 841 842 843 844 845 846 847 848 849 850 851 852 853 0
153 -302 830 831 832 833 834 835 836 837 838 839 840 841 842 843 844 845 846 847 848 849 850 851 852 853 0
-154 303 830 831 832 833 834 835 836 837 838 839 840 841 842 843 844 845 846 847 848 849 850 851 852 853 0
154 -303 830 831 832 833 834 835 836 837 838 839 840 841 842 843 844 845 846 847 848 849 850 851 852 853 0
-155 304 830 831 832 833 834 835 836 837 838 839 840 841 842 843 844 845 846 847 848 849 850 851 852 853 0
155 -304 830 831 832 833 834 835 836 837 838 839 840 841 842 843 844 845 846 847 848 849 850 851 852 853 0
-156 305 830 831 832 833 834 835 836 837 838 839 840 841 842 843 844 845 846 847 848 849 850 851 852 853 0
156 -305 830 831 832 833 834 835 836 837 838 839 840 841 842 843 844 845 846 847 848 849 850 851 852 853 0
-157 306 830 831 832 833 834 835 836 837 838 839 840 841 842 843 844 845 846 847 848 849 850 851 852 853 0
157 -306 830 831 832 833 834 835 836 837 838 839 840 841 842 843 844 845 846 847 848 849 850 851 852 853 0
-158 307 830 831 832 833 834 835 836 837 838 839 840 841 842 843 844 845 846 847 848 849 850 851 852 853 0
158 -307 830 831 832 833 834 835 836 837 838 839 840 841 842 843 844 845 846 847 848 849 850 851 852 853 0
-159 308 830 831 832 833 834 835 836 837 838 839 840 841 842 843 844 845 846 847 848 849 850 851 852 853 0
159 -308 830 831 832 833 834 835 836 837 838 839 840 841 842 843 844 845 846 847 848 849 850 851 852 853 0
-209 358 854 855 856 857 858 859 860 861 862 863 864 865 866 867 868 869 870 871 872 873 874 875 876 877 0
209 -358 854 855 856 857 858 859 860 861 862 863 864 865 866 867 868 869 870 871 872 873 874 875 876 877 0
-210 359 854 855 856 857 858 859 860 861 862 863 864 865 866 867 868 869 870 871 872 873 874 875 876 877 0
210 -359 854 855 856 857 858 859 860 861 862 863 864 865 866 867 868 869 870 871 872 873 874 875 876 877 0
-211 360 854 855 856 857 858 859 860 861 862 863 864 865 866 867 868 869 870 871 872 873 874 875 876 877 0
211 -360 854 855 856 857 858 859 860 861 862 863 864 865 866 867 868 869 870 871 872 873 874 875 876 877 0
-212 361 854 855 856 857 858 859 860 861 862 863 864 865 866 867 868 869 870 871 872 873 874 875 876 877 0
212 -361 854 855 856 857 858 859 860 861 862 863 864 865 866 867 868 869 870 871 872 873 874 875 876 877 0
-213 362 854 855 856 857 858 859 860 861 862 863 864 865 866 867 868 869 870 871 872 873 874 875 876 877 0
213 -362 854 855 856 857 858 859 860 861 862 863 864 865 866 867 868 869 870 871 872 873 874 875 876 877 0
-214 363 854 855 856 857 858 859 860 861 862 863 864 865 866 867 868 869 870 871 872 873 874 875 876 877 0
214 -363 854 855 856 857 858 859 860 861 862 863 864 865 866 867 868 869 870 871 872 873 874 875 876 877 0
-215 364 854 855 856 857 858 859 860 861 862 863 864 865 866 867 868 869 870 871 872 873 874 875 876 877 0
215 -364 854 855 856 857 858 859 860 861 862 863 864 865 866 867 868 869 870 871 872 873 874 875 876 877 0
-216 365 854 855 856 857 858 859 860 861 862 863 864 865 866 867 868 869 870 871 872 873 874 875 876 877 0
216 -365 854 855 856 857 858 859 860 861 862 863 864 865 866 867 868 869 870 871 872 873 874 875 876 877 0
-217 366 854 855 856 857 858 859 860 861 862 863 864 865 866 867 868 869 870 871 872 873 874 875 876 877 0
217 -366 854 855 856 857 858 859 860 861 862 863 864 865 866 867 868 869 870 871 872 873 874 875 876 877 0
-218 367 854 855 856 857 858 859 860 861 862 863 864 865 866 867 868 869 870 871 872 873 874 875 876 877 0
218 -367 854 855 856 857 858 859 860 861 862 863 864 865 866 867 868 869 870 871 872 873 874 875 876 877 0
-244 393 878 879 880 881 882 883 884 885 886 887 888 889 890 891 892 893 894 895 896 897 0
244 -393 878 879 880 881 882 883 884 885 886 887 888 889 890 891 892 893 894 895 896 897 0
-245 394 878 879 880 881 882 883 884 885 886 887 888 889 890 891 892 893 894 895 896 897 0
245 -394 878 879 880 881 882 883 884 885 886 887 888 889 890 891 892 893 894 895 896 897 0
-246 395 878 879 880 881 882 883 884 885 886 887 888 889 890 891 892 893 894 895 896 897 0
246 -395 878 879 880 881 882 883 884 885 886 887 888 889 890 891 892 893 894 895 896 897 0
-247 396 878 879 880 881 882 883 884 885 886 887 888 889 890 891 892 893 894 895 896 897 0
247 -396 878 879 880 881 882 883 884 885 886 887 888 889 890 891 892 893 894 895 896 897 0
-248 397 878 879 880 881 882 883 884 885 886 887 888 889 890 891 892 893 894 895 896 897 0
248 -397 878 879 880 881 882 883 884 885 886 887 888 889 890 891 892 893 894 895 896 897 0
-249 398 878 879 880 881 882 883 884 885 886 887 888 889 890 891 892 893 894 895 896 897 0
249 -398 878 879 880 881 882 883 884 885 886 887 888 889 890 891 892 893 894 895 896 897 0
-250 399 878 879 880 881 882 883 884 885 886 887 888 889 890 891 892 893 894 895 896 897 0
250 -399 878 879 880 881 882 883 884 885 886 887 888 889 890 891 892 893 894 895 896 897 0
-251 400 878 879 880 881 882 883 884 885 886 887 888 889 890 891 892 893 894 895 896 897 0
251 -400 878 879 880 881 882 883 884 885 886 887 888 889 890 891 892 893 894 895 896 897 0
-252 401 878 879 880 881 882 883 884 885 886 887 888 889 890 891 892 893 894 895 896 897 0
252 -401 878 879 880 881 882 883 884 885 886 887 888 889 890 891 892 893 894 895 896 897 0
-274 423 898 899 900 901 902 903 904 905 906 907 908 909 910 911 912 913 0
274 -423 898 899 900 901 902 903 904 905 906 907 908 909 910 911 912 913 0
-275 424 898 899 900 901 902 903 904 905 906 907 908 909 910 911 912 913 0
275 -424 898 899 900 901 902 903 904 905 906 907 908 909 910 911 912 913 0
-276 425 898 899 900 901 902 903 904 905 906 907 908 909 910 911 912 913 0
276 -425 898 899 900 901 902 903 904 905 906 907 908 909 910 911 912 913 0
-277 426 898 899 900 901 902 903 904 905 906 907 908 909 910 911 912 913 0
277 -426 898 899 900 901 902 903 904 905 906 907 908 909 910 911 912 913 0
-278 427 898 899 900 901 902 903 904 905 906 907 908 909 910 911 912 913 0
278 -427 898 899 900 901 902 903 904 905 906 907 908 909 910 911 912 913 0
-279 428 898 899 900 901 902 903 904 905 906 907 908 909 910 911 912 913 0
279 -428 898 899 900 901 902 903 904 905 906 907 908 909 910 911 912 913 0
-280 429 898 899 900 901 902 903 904 905 906 907 908 909 910 911 912 913 0
280 -429 898 899 900 901 902 903 904 905 906 907 908 909 910 911 912 913 0
-281 430 898 899 900 901 902 903 904 905 906 907 908 909 910 911 912 913 0
281 -430 898 899 900 901 902 903 904 905 906 907 908 909 910 911 912 913 0
-914 313 0
-914 448 0
-914 462 0
-914 454 0
-914 -299 -305 0
-915 313 0
-915 449 0
-915 462 0
-915 454 0
-915 -300 -305 0
-916 313 0
-916 450 0
-916 462 0
-916 454 0
-916 -301 -305 0
-917 313 0
-917 451 0
-917 462 0
-917 454 0
-917 -302 -305 0
-918 313 0
-918 452 0
-918 462 0
-918 454 0
-918 -303 -305 0
-919 313 0
-919 453 0
-919 462 0
-919 454 0
-919 -304 -305 0
-920 313 0
-920 448 0
-920 462 0
-920 358 0
-920 -367 0
-920 -518 0
-920 -364 455 0
-920 -364 -299 -306 0
-920 -365 456 0
-920 -365 -299 -307 0
-920 -366 457 0
-920 -366 -299 -308 0
-921 313 0
-921 449 0
-921 462 0
-921 359 0
-921 -367 0
-921 -518 0
-921 -364 455 0
-921 -364 -300 -306 0
-921 -365 456 0
-921 -365 -300 -307 0
-921 -366 457 0
-921 -366 -300 -308 0
-922 313 0
-922 450 0
-922 462 0
-922 360 0
-922 -367 0
-922 -518 0
-922 -364 455 0
-922 -364 -301 -306 0
-922 -365 456 0
-922 -365 -301 -307 0
-922 -366 457 0
-922 -366 -301 -308 0
-923 313 0
-923 451 0
-923 462 0
-923 361 0
-923 -367 0
-923 -518 0
-923 -364 455 0
-923 -364 -302 -306 0
-923 -365 456 0
-923 -365 -302 -307 0
-923 -366 457 0
-923 -366 -302 -308 0
-924 313 0
-924 452 0
-924 462 0
-924 362 0
-924 -367 0
-924 -518 0
-924 -364 455 0
-924 -364 -303 -306 0
-924 -365 456 0
-924 -365 -303 -307 0
-924 -366 457 0
-924 -366 -303 -308 0
-925 313 0
-925 453 0
-925 462 0
-925 363 0
-925 -367 0
-925 -518 0
-925 -364 455 0
-925 -364 -304 -306 0
-925 -365 456 0
-925 -365 -304 -307 0
-925 -366 457 0
-925 -366 -304 -308 0
-926 313 0
-926 448 0
-926 462 0
-926 393 0
-926 -401 0
-926 -552 0
-926 -398 455 0
-926 -398 -299 -306 0
-926 -399 456 0
-926 -399 -299 -307 0
-926 -400 457 0
-926 -400 -299 -308 0
-927 313 0
-927 449 0
-927 462 0
-927 393 394 0
-927 -401 0
-927 -552 0
-927 -398 455 0
-927 -398 -300 -306 0
-927 -399 456 0
-927 -399 -300 -307 0
-927 -400 457 0
-927 -400 -300 -308 0
-928 313 0
-928 450 0
-928 462 0
-928 394 395 0
-928 -401 0
-928 -552 0
-928 -398 455 0
-928 -398 -301 -306 0
-928 -399 456 0
-928 -399 -301 -307 0
-928 -400 457 0
-928 -400 -301 -308 0
-929 313 0
-929 451 0
-929 462 0
-929 395 396 0
-929 -401 0
-929 -552 0
-929 -398 455 0
-929 -398 -302 -306 0
-929 -399 456 0
-929 -399 -302 -307 0
-929 -400 457 0
-929 -400 -302 -308 0
-930 313 0
-930 452 0
-930 462 0
-930 396 397 0
-930 -401 0
-930 -552 0
-930 -398 455 0
-930 -398 -303 -306 0
-930 -399 456 0
-930 -399 -303 -307 0
-930 -400 457 0
-930 -400 -303 -308 0
-931 313 0
-931 453 0
-931 462 0
-931 397 0
-931 -401 0
-931 -552 0
-931 -398 455 0
-931 -398 -304 -306 0
-931 -399 456 0
-931 -399 -304 -307 0
-931 -400 457 0
-931 -400 -304 -308 0
-932 313 0
-932 448 0
-932 462 0
-932 423 0
-932 -430 0
-932 -581 0
-932 -427 455 0
-932 -427 -299 -306 0
-932 -428 456 0
-932 -428 -299 -307 0
-932 -429 457 0
-932 -429 -299 -308 0
-933 313 0
-933 449 0
-933 462 0
-933 423 424 0
-933 -430 0
-933 -581 0
-933 -427 455 0
-933 -427 -300 -306 0
-933 -428 456 0
-933 -428 -300 -307 0
-933 -429 457 0
-933 -429 -300 -308 0
-934 313 0
-934 450 0
-934 462 0
-934 423 424 425 0
-934 -430 0
-934 -581 0
-934 -427 455 0
-934 -427 -301 -306 0
-934 -428 456 0
-934 -428 -301 -307 0
-934 -429 457 0
-934 -429 -301 -308 0
-935 313 0
-935 451 0
-935 462 0
-935 424 425 426 0
-935 -430 0
-935 -581 0
-935 -427 455 0
-935 -427 -302 -306 0
-935 -428 456 0
-935 -428 -302 -307 0
-935 -429 457 0
-935 -429 -302 -308 0
-936 313 0
-936 452 0
-936 462 0
-936 425 426 0
-936 -430 0
-936 -581 0
-936 -427 455 0
-936 -427 -303 -306 0
-936 -428 456 0
-936 -428 -303 -307 0
-936 -429 457 0
-936 -429 -303 -308 0
-937 313 0
-937 453 0
-937 462 0
-937 426 0
-937 -430 0
-937 -581 0
-937 -427 455 0
-937 -427 -304 -306 0
-937 -428 456 0
-937 -428 -304 -307 0
-937 -429 457 0
-937 -429 -304 -308 0
-938 369 0
-938 507 0
-938 518 0
-938 513 0
-938 -358 -364 0
-939 369 0
-939 508 0
-939 518 0
-939 513 0
-939 -359 -364 0
-940 369 0
-940 509 0
-940 518 0
-940 513 0
-940 -360 -364 0
-941 369 0
-941 510 0
-941 518 0
-941 513 0
-941 -361 -364 0
-942 369 0
-942 511 0
-942 518 0
-942 513 0
-942 -362 -364 0
-943 369 0
-943 512 0
-943 518 0
-943 513 0
-943 -363 -364 0
-944 369 0
-944 507 0
-944 518 0
-944 299 0
-944 -308 0
-944 -462 0
-944 -305 514 0
-944 -305 -358 -365 0
-944 -306 515 0
-944 -306 -358 -366 0
-944 -307 516 0
-944 -307 -358 -367 0
-945 369 0
-945 508 0
-945 518 0
-945 300 0
-945 -308 0
-945 -462 0
-945 -305 514 0
-945 -305 -359 -365 0
-945 -306 515 0
-945 -306 -359 -366 0
-945 -307 516 0
-945 -307 -359 -367 0
-946 369 0
-946 509 0
-946 518 0
-946 301 0
-946 -308 0
-946 -462 0
-946 -305 514 0
-946 -305 -360 -365 0
-946 -306 515 0
-946 -306 -360 -366 0
-946 -307 516 0
-946 -307 -360 -367 0
-947 369 0
-947 510 0
-947 518 0
-947 302 0
-947 -308 0
-947 -462 0
-947 -305 514 0
-947 -305 -361 -365 0
-947 -306 515 0
-947 -306 -361 -366 0
-947 -307 516 0
-947 -307 -361 -367 0
-948 369 0
-948 511 0
-948 518 0
-948 303 0
-948 -308 0
-948 -462 0
-948 -305 514 0
-948 -305 -362 -365 0
-948 -306 515 0
-948 -306 -362 -366 0
-948 -307 516 0
-948 -307 -362 -367 0
-949 369 0
-949 512 0
-949 518 0
-949 304 0
-949 -308 0
-949 -462 0
-949 -305 514 0
-949 -305 -363 -365 0
-949 -306 515 0
-949 -306 -363 -366 0
-949 -307 516 0
-949 -307 -363 -367 0
-950 369 0
-950 507 0
-950 518 0
-950 393 0
-950 -401 0
-950 -552 0
-950 -398 514 0
-950 -398 -358 -365 0
-950 -399 515 0
-950 -399 -358 -366 0
-950 -400 516 0
-950 -400 -358 -367 0
-951 369 0
-951 508 0
-951 518 0
-951 393 394 0
-951 -401 0
-951 -552 0
-951 -398 514 0
-951 -398 -359 -365 0
-951 -399 515 0
-951 -399 -359 -366 0
-951 -400 516 0
-951 -400 -359 -367 0
-952 369 0
-952 509 0
-952 518 0
-952 394 395 0
-952 -401 0
-952 -552 0
-952 -398 514 0
-952 -398 -360 -365 0
-952 -399 515 0
-952 -399 -360 -366 0
-952 -400 516 0
-952 -400 -360 -367 0
-953 369 0
-953 510 0
-953 518 0
-953 395 396 0
-953 -401 0
-953 -552 0
-953 -398 514 0
-953 -398 -361 -365 0
-953 -399 515 0
-953 -399 -361 -366 0
-953 -400 516 0
-953 -400 -361 -367 0
-954 369 0
-954 511 0
-954 518 0
-954 396 397 0
-954 -401 0
-954 -552 0
-954 -398 514 0
-954 -398 -362 -365 0
-954 -399 515 0
-954 -399 -362 -366 0
-954 -400 516 0
-954 -400 -362 -367 0
-955 369 0
-955 512 0
-955 518 0
-955 397 0
-955 -401 0
-955 -552 0
-955 -398 514 0
-955 -398 -363 -365 0
-955 -399 515 0
-955 -399 -363 -366 0
-955 -400 516 0
-955 -400 -363 -367 0
-956 369 0
-956 507 0
-956 518 0
-956 423 0
-956 -430 0
-956 -581 0
-956 -427 514 0
-956 -427 -358 -365 0
-956 -428 515 0
-956 -428 -358 -366 0
-956 -429 516 0
-956 -429 -358 -367 0
-957 369 0
-957 508 0
-957 518 0
-957 423 424 0
-957 -430 0
-957 -581 0
-957 -427 514 0
-957 -427 -359 -365 0
-957 -428 515 0
-957 -428 -359 -366 0
-957 -429 516 0
-957 -429 -359 -367 0
-958 369 0
-958 509 0
-958 518 0
-958 423 424 425 0
-958 -430 0
-958 -581 0
-958 -427 514 0
-958 -427 -360 -365 0
-958 -428 515 0
-958 -428 -360 -366 0
-958 -429 516 0
-958 -429 -360 -367 0
-959 369 0
-959 510 0
-959 518 0
-959 424 425 426 0
-959 -430 0
-959 -581 0
-959 -427 514 0
-959 -427 -361 -365 0
-959 -428 515 0
-959 -428 -361 -366 0
-959 -429 516 0
-959 -429 -361 -367 0
-960 369 0
-960 511 0
-960 518 0
-960 425 426 0
-960 -430 0
-960 -581 0
-960 -427 514 0
-960 -427 -362 -365 0
-960 -428 515 0
-960 -428 -362 -366 0
-960 -429 516 0
-960 -429 -362 -367 0
-961 369 0
-961 512 0
-961 518 0
-961 426 0
-961 -430 0
-961 -581 0
-961 -427 514 0
-961 -427 -363 -365 0
-961 -428 515 0
-961 -428 -363 -366 0
-961 -429 516 0
-961 -429 -363 -367 0
-962 403 0
-962 542 0
-962 552 0
-962 547 0
-962 -393 -398 0
-963 403 0
-963 543 0
-963 552 0
-963 547 0
-963 -394 -398 0
-964 403 0
-964 544 0
-964 552 0
-964 547 0
-964 -395 -398 0
-965 403 0
-965 545 0
-965 552 0
-965 547 0
-965 -396 -398 0
-966 403 0
-966 546 0
-966 552 0
-966 547 0
-966 -397 -398 0
-967 403 0
-967 542 0
-967 552 0
-967 299 300 0
-967 -308 0
-967 -462 0
-967 -305 548 0
-967 -305 -393 -399 0
-967 -306 549 0
-967 -306 -393 -400 0
-967 -307 550 0
-967 -307 -393 -401 0
-968 403 0
-968 543 0
-968 552 0
-968 300 301 0
-968 -308 0
-968 -462 0
-968 -305 548 0
-968 -305 -394 -399 0
-968 -306 549 0
-968 -306 -394 -400 0
-968 -307 550 0
-968 -307 -394 -401 0
-969 403 0
-969 544 0
-969 552 0
-969 301 302 0
-969 -308 0
-969 -462 0
-969 -305 548 0
-969 -305 -395 -399 0
-969 -306 549 0
-969 -306 -395 -400 0
-969 -307 550 0
-969 -307 -395 -401 0
-970 403 0
-970 545 0
-970 552 0
-970 302 303 0
-970 -308 0
-970 -462 0
-970 -305 548 0
-970 -305 -396 -399 0
-970 -306 549 0
-970 -306 -396 -400 0
-970 -307 550 0
-970 -307 -396 -401 0
-971 403 0
-971 546 0
-971 552 0
-971 303 304 0
-971 -308 0
-971 -462 0
-971 -305 548 0
-971 -305 -397 -399 0
-971 -306 549 0
-971 -306 -397 -400 0
-971 -307 550 0
-971 -307 -397 -401 0
-972 403 0
-972 542 0
-972 552 0
-972 358 359 0
-972 -367 0
-972 -518 0
-972 -364 548 0
-972 -364 -393 -399 0
-972 -365 549 0
-972 -365 -393 -400 0
-972 -366 550 0
-972 -366 -393 -401 0
-973 403 0
-973 543 0
-973 552 0
-973 359 360 0
-973 -367 0
-973 -518 0
-973 -364 548 0
-973 -364 -394 -399 0
-973 -365 549 0
-973 -365 -394 -400 0
-973 -366 550 0
-973 -366 -394 -401 0
-974 403 0
-974 544 0
-974 552 0
-974 360 361 0
-974 -367 0
-974 -518 0
-974 -364 548 0
-974 -364 -395 -399 0
-974 -365 549 0
-974 -365 -395 -400 0
-974 -366 550 0
-974 -366 -395 -401 0
-975 403 0
-975 545 0
-975 552 0
-975 361 362 0
-975 -367 0
-975 -518 0
-975 -364 548 0
-975 -364 -396 -399 0
-975 -365 549 0
-975 -365 -396 -400 0
-975 -366 550 0
-975 -366 -396 -401 0
-976 403 0
-976 546 0
-976 552 0
-976 362 363 0
-976 -367 0
-976 -518 0
-976 -364 548 0
-976 -364 -397 -399 0
-976 -365 549 0
-976 -365 -397 -400 0
-976 -366 550 0
-976 -366 -397 -401 0
-977 403 0
-977 542 0
-977 552 0
-977 423 424 0
-977 -430 0
-977 -581 0
-977 -427 548 0
-977 -427 -393 -399 0
-977 -428 549 0
-977 -428 -393 -400 0
-977 -429 550 0
-977 -429 -393 -401 0
-978 403 0
-978 543 0
-978 552 0
-978 423 424 425 0
-978 -430 0
-978 -581 0
-978 -427 548 0
-978 -427 -394 -399 0
-978 -428 549 0
-978 -428 -394 -400 0
-978 -429 550 0
-978 -429 -394 -401 0
-979 403 0
-979 544 0
-979 552 0
-979 423 424 425 426 0
-979 -430 0
-979 -581 0
-979 -427 548 0
-979 -427 -395 -399 0
-979 -428 549 0
-979 -428 -395 -400 0
-979 -429 550 0
-979 -429 -395 -401 0
-980 403 0
-980 545 0
-980 552 0
-980 424 425 426 0
-980 -430 0
-980 -581 0
-980 -427 548 0
-980 -427 -396 -399 0
-980 -428 549 0
-980 -428 -396 -400 0
-980 -429 550 0
-980 -429 -396 -401 0
-981 403 0
-981 546 0
-981 552 0
-981 425 426 0
-981 -430 0
-981 -581 0
-981 -427 548 0
-981 -427 -397 -399 0
-981 -428 549 0
-981 -428 -397 -400 0
-981 -429 550 0
-981 -429 -397 -401 0
-982 432 0
-982 572 0
-982 581 0
-982 576 0
-982 -423 -427 0
-983 432 0
-983 573 0
-983 581 0
-983 576 0
-983 -424 -427 0
-984 432 0
-984 574 0
-984 581 0
-984 576 0
-984 -425 -427 0
-985 432 0
-985 575 0
-985 581 0
-985 576 0
-985 -426 -427 0
-986 432 0
-986 572 0
-986 581 0
-986 299 300 301 0
-986 -308 0
-986 -462 0
-986 -305 577 0
-986 -305 -423 -428 0
-986 -306 578 0
-986 -306 -423 -429 0
-986 -307 579 0
-986 -307 -423 -430 0
-987 432 0
-987 573 0
-987 581 0
-987 300 301 302 0
-987 -308 0
-987 -462 0
-987 -305 577 0
-987 -305 -424 -428 0
-987 -306 578 0
-987 -306 -424 -429 0
-987 -307 579 0
-987 -307 -424 -430 0
-988 432 0
-988 574 0
-988 581 0
-988 301 302 303 0
-988 -308 0
-988 -462 0
-988 -305 577 0
-988 -305 -425 -428 0
-988 -306 578 0
-988 -306 -425 -429 0
-988 -307 579 0
-988 -307 -425 -430 0
-989 432 0
-989 575 0
-989 581 0
-989 302 303 304 0
-989 -308 0
-989 -462 0
-989 -305 577 0
-989 -305 -426 -428 0
-989 -306 578 0
-989 -306 -426 -429 0
-989 -307 579 0
-989 -307 -426 -430 0
-990 432 0
-990 572 0
-990 581 0
-990 358 359 360 0
-990 -367 0
-990 -518 0
-990 -364 577 0
-990 -364 -423 -428 0
-990 -365 578 0
-990 -365 -423 -429 0
-990 -366 579 0
-990 -366 -423 -430 0
-991 432 0
-991 573 0
-991 581 0
-991 359 360 361 0
-991 -367 0
-991 -518 0
-991 -364 577 0
-991 -364 -424 -428 0
-991 -365 578 0
-991 -365 -424 -429 0
-991 -366 579 0
-991 -366 -424 -430 0
-992 432 0
-992 574 0
-992 581 0
-992 360 361 362 0
-992 -367 0
-992 -518 0
-992 -364 577 0
-992 -364 -425 -428 0
-992 -365 578 0
-992 -365 -425 -429 0
-992 -366 579 0
-992 -366 -425 -430 0
-993 432 0
-993 575 0
-993 581 0
-993 361 362 363 0
-993 -367 0
-993 -518 0
-993 -364 577 0
-993 -364 -426 -428 0
-993 -365 578 0
-993 -365 -426 -429 0
-993 -366 579 0
-993 -366 -426 -430 0
-994 432 0
-994 572 0
-994 581 0
-994 393 394 395 0
-994 -401 0
-994 -552 0
-994 -398 577 0
-994 -398 -423 -428 0
-994 -399 578 0
-994 -399 -423 -429 0
-994 -400 579 0
-994 -400 -423 -430 0
-995 432 0
-995 573 0
-995 581 0
-995 393 394 395 396 0
-995 -401 0
-995 -552 0
-995 -398 577 0
-995 -398 -424 -428 0
-995 -399 578 0
-995 -399 -424 -429 0
-995 -400 579 0
-995 -400 -424 -430 0
-996 432 0
-996 574 0
-996 581 0
-996 394 395 396 397 0
-996 -401 0
-996 -552 0
-996 -398 577 0
-996 -398 -425 -428 0
-996 -399 578 0
-996 -399 -425 -429 0
-996 -400 579 0
-996 -400 -425 -430 0
-997 432 0
-997 575 0
-997 581 0
-997 395 396 397 0
-997 -401 0
-997 -552 0
-997 -398 577 0
-997 -398 -426 -428 0
-997 -399 578 0
-997 -399 -426 -429 0
-997 -400 579 0
-997 -400 -426 -430 0
914 915 916 917 918 919 920 921 922 923 924 925 926 927 928 929 930 931 932 933 934 935 936 937 938 939 940 941 942 943 944 945 946 947 948 949 950 951 952 953 954 955 956 957 958 959 960 961 962 963 964 965 966 967 968 969 970 971 972 973 974 975 976 977 978 979 980 981 982 983 984 985 986 987 988 989 990 991 992 993 994 995 996 997 0
-914 -915 0
-914 -916 0
-914 -917 0
-914 -918 0
-914 -919 0
-914 -920 0
-914 -921 0
-914 -922 0
-914 -923 0
-914 -924 0
-914 -925 0
-914 -926 0
-914 -927 0
-914 -928 0
-914 -929 0
-914 -930 0
-914 -931 0
-914 -932 0
-914 -933 0
-914 -934 0
-914 -935 0
-914 -936 0
-914 -937 0
-914 -938 0
-914 -939 0
-914 -940 0
-914 -941 0
-914 -942 0
-914 -943 0
-914 -944 0
-914 -945 0
-914 -946 0
-914 -947 0
-914 -948 0
-914 -949 0
-914 -950 0
-914 -951 0
-914 -952 0
-914 -953 0
-914 -954 0
-914 -955 0
-914 -956 0
-914 -957 0
-914 -958 0
-914 -959 0
-914 -960 0
-914 -961 0
-914 -962 0
-914 -963 0
-914 -964 0
-914 -965 0
-914 -966 0
-914 -967 0
-914 -968 0
-914 -969 0
-914 -970 0
-914 -971 0
-914 -972 0
-914 -973 0
-914 -974 0
-914 -975 0
-914 -976 0
-914 -977 0
-914 -978 0
-914 -979 0
-914 -980 0
-914 -981 0
-914 -982 0
-914 -983 0
-914 -984 0
-914 -985 0
-914 -986 0
-914 -987 0
-914 -988 0
-914 -989 0
-914 -990 0
-914 -991 0
-914 -992 0
-914 -993 0
-914 -994 0
-914 -995 0
-914 -996 0
-914 -997 0
-915 -916 0
-915 -917 0
-915 -918 0
-915 -919 0
-915 -920 0
-915 -921 0
-915 -922 0
-915 -923 0
-915 -924 0
-915 -925 0
-915 -926 0
-915 -927 0
-915 -928 0
-915 -929 0
-915 -930 0
-915 -931 0
-915 -932 0
-915 -933 0
-915 -934 0
-915 -935 0
-915 -936 0
-915 -937 0
-915 -938 0
-915 -939 0
-915 -940 0
-915 -941 0
-915 -942 0
-915 -943 0
-915 -944 0
-915 -945 0
-915 -946 0
-915 -947 0
-915 -948 0
-915 -949 0
-915 -950 0
-915 -951 0
-915 -952 0
-915 -953 0
-915 -954 0
-915 -955 0
-915 -956 0
-915 -957 0
-915 -958 0
-915 -959 0
-915 -960 0
-915 -961 0
-915 -962 0
-915 -963 0
-915 -964 0
-915 -965 0
-915 -966 0
-915 -967 0
-915 -968 0
-915 -969 0
-915 -970 0
-915 -971 0
-915 -972 0
-915 -973 0
-915 -974 0
-915 -975 0
-915 -976 0
-915 -977 0
-915 -978 0
-915 -979 0
-915 -980 0
-915 -981 0
-915 -982 0
-915 -983 0
-915 -984 0
-915 -985 0
-915 -986 0
-915 -987 0
-915 -988 0
-915 -989 0
-915 -990 0
-915 -991 0
-915 -992 0
-915 -993 0
-915 -994 0
-915 -995 0
-915 -996 0
-915 -997 0
-916 -917 0
-916 -918 0
-916 -919 0
-916 -920 0
-916 -921 0
-916 -922 0
-916 -923 0
-916 -924 0
-916 -925 0
-916 -926 0
-916 -927 0
-916 -928 0
-916 -929 0
-916 -930 0
-916 -931 0
-916 -932 0
-916 -933 0
-916 -934 0
-916 -935 0
-916 -936 0
-916 -937 0
-916 -938 0
-916 -939 0
-916 -940 0
-916 -941 0
-916 -942 0
-916 -943 0
-916 -944 0
-916 -945 0
-916 -946 0
-916 -947 0
-916 -948 0
-916 -949 0
-916 -950 0
-916 -951 0
-916 -952 0
-916 -953 0
-916 -954 0
-916 -955 0
-916 -956 0
-916 -957 0
-916 -958 0
-916 -959 0
-916 -960 0
-916 -961 0
-916 -962 0
-916 -963 0
-916 -964 0
-916 -965 0
-916 -966 0
-916 -967 0
-916 -968 0
-916 -969 0
-916 -970 0
-916 -971 0
-916 -972 0
-916 -973 0
-916 -974 0
-916 -975 0
-916 -976 0
-916 -977 0
-916 -978 0
-916 -979 0
-916 -980 0
-916 -981 0
-916 -982 0
-916 -983 0
-916 -984 0
-916 -985 0
-916 -986 0
-916 -987 0
-916 -988 0
-916 -989 0
-916 -990 0
-916 -991 0
-916 -992 0
-916 -993 0
-916 -994 0
-916 -995 0
-916 -996 0
-916 -997 0
-917 -918 0
-917 -919 0
-917 -920 0
-917 -921 0
-917 -922 0
-917 -923 0
-917 -924 0
-917 -925 0
-917 -926 0
-917 -927 0
-917 -928 0
-917 -929 0
-917 -930 0
-917 -931 0
-917 -932 0
-917 -933 0
-917 -934 0
-917 -935 0
-917 -936 0
-917 -937 0
-917 -938 0
-917 -939 0
-917 -940 0
-917 -941 0
-917 -942 0
-917 -943 0
-917 -944 0
-917 -945 0
-917 -946 0
-917 -947 0
-917 -948 0
-917 -949 0
-917 -950 0
-917 -951 0
-917 -952 0
-917 -953 0
-917 -954 0
-917 -955 0
-917 -956 0
-917 -957 0
-917 -958 0
-917 -959 0
-917 -960 0
-917 -961 0
-917 -962 0
-917 -963 0
-917 -964 0
-917 -965 0
-917 -966 0
-917 -967 0
-917 -968 0
-917 -969 0
-917 -970 0
-917 -971 0
-917 -972 0
-917 -973 0
-917 -974 0
-917 -975 0
-917 -976 0
-917 -977 0
-917 -978 0
-917 -979 0
-917 -980 0
-917 -981 0
-917 -982 0
-917 -983 0
-917 -984 0
-917 -985 0
-917 -986 0
-917 -987 0
-917 -988 0
-917 -989 0
-917 -990 0
-917 -991 0
-917 -992 0
-917 -993 0
-917 -994 0
-917 -995 0
-917 -996 0
-917 -997 0
-918 -919 0
-918 -920 0
-918 -921 0
-918 -922 0
-918 -923 0
-918 -924 0
-918 -925 0
-918 -926 0
-918 -927 0
-918 -928 0
-918 -929 0
-918 -930 0
-918 -931 0
-918 -932 0
-918 -933 0
-918 -934 0
-918 -935 0
-918 -936 0
-918 -937 0
-918 -938 0
-918 -939 0
-918 -940 0
-918 -941 0
-918 -942 0
-918 -943 0
-918 -944 0
-918 -945 0
-918 -946 0
-918 -947 0
-918 -948 0
-918 -949 0
-918 -950 0
-918 -951 0
-918 -952 0
-918 -953 0
-918 -954 0
-918 -955 0
-918 -956 0
-918 -957 0
-918 -958 0
-918 -959 0
-918 -960 0
-918 -961 0
-918 -962 0
-918 -963 0
-918 -964 0
-918 -965 0
-918 -966 0
-918 -967 0
-918 -968 0
-918 -969 0
-918 -970 0
-918 -971 0
-918 -972 0
-918 -973 0
-918 -974 0
-918 -975 0
-918 -976 0
-918 -977 0
-918 -978 0
-918 -979 0
-918 -980 0
-918 -981 0
-918 -982 0
-918 -983 0
-918 -984 0
-918 -985 0
-918 -986 0
-918 -987 0
-918 -988 0
-918 -989 0
-918 -990 0
-918 -991 0
-918 -992 0
-918 -993 0
-918 -994 0
-918 -995 0
-918 -996 0
-918 -997 0
-919 -920 0
-919 -921 0
-919 -922 0
-919 -923 0
-919 -924 0
-919 -925 0
-919 -926 0
-919 -927 0
-919 -928 0
-919 -929 0
-919 -930 0
-919 -931 0
-919 -932 0
-919 -933 0
-919 -934 0
-919 -935 0
-919 -936 0
-919 -937 0
-919 -938 0
-919 -939 0
-919 -940 0
-919 -941 0
-919 -942 0
-919 -943 0
-919 -944 0
-919 -945 0
-919 -946 0
-919 -947 0
-919 -948 0
-919 -949 0
-919 -950 0
-919 -951 0
-919 -952 0
-919 -953 0
-919 -954 0
-919 -955 0
-919 -956 0
-919 -957 0
-919 -958 0
-919 -959 0
-919 -960 0
-919 -961 0
-919 -962 0
-919 -963 0
-919 -964 0
-919 -965 0
-919 -966 0
-919 -967 0
-919 -968 0
-919 -969 0
-919 -970 0
-919 -971 0
-919 -972 0
-919 -973 0
-919 -974 0
-919 -975 0
-919 -976 0
-919 -977 0
-919 -978 0
-919 -979 0
-919 -980 0
-919 -981 0
-919 -982 0
-919 -983 0
-919 -984 0
-919 -985 0
-919 -986 0
-919 -987 0
-919 -988 0
-919 -989 0
-919 -990 0
-919 -991 0
-919 -992 0
-919 -993 0
-919 -994 0
-919 -995 0
-919 -996 0
-919 -997 0
-920 -921 0
-920 -922 0
-920 -923 0
-920 -924 0
-920 -925 0
-920 -926 0
-920 -927 0
-920 -928 0
-920 -929 0
-920 -930 0
-920 -931 0
-920 -932 0
-920 -933 0
-920 -934 0
-920 -935 0
-920 -936 0
-920 -937 0
-920 -938 0
-920 -939 0
-920 -940 0
-920 -941 0
-920 -942 0
-920 -943 0
-920 -944 0
-920 -945 0
-920 -946 0
-920 -947 0
-920 -948 0
-920 -949 0
-920 -950 0
-920 -951 0
-920 -952 0
-920 -953 0
-920 -954 0
-920 -955 0
-920 -956 0
-920 -957 0
-920 -958 0
-920 -959 0
-920 -960 0
-920 -961 0
-920 -962 0
-920 -963 0
-920 -964 0
-920 -965 0
-920 -966 0
-920 -967 0
-920 -968 0
-920 -969 0
-920 -970 0
-920 -971 0
-920 -972 0
-920 -973 0
-920 -974 0
-920 -975 0
-920 -976 0
-920 -977 0
-920 -978 0
-920 -979 0
-920 -980 0
-920 -981 0
-920 -982 0
-920 -983 0
-920 -984 0
-920 -985 0
-920 -986 0
-920 -987 0
-920 -988 0
-920 -989 0
-920 -990 0
-920 -991 0
-920 -992 0
-920 -993 0
-920 -994 0
-920 -995 0
-920 -996 0
-920 -997 0
-921 -922 0
-921 -923 0
-921 -924 0
-921 -925 0
-921 -926 0
-921 -927 0
-921 -928 0
-921 -929 0
-921 -930 0
-921 -931 0
-921 -932 0
-921 -933 0
-921 -934 0
-921 -935 0
-921 -936 0
-921 -937 0
-921 -938 0
-921 -939 0
-921 -940 0
-921 -941 0
-921 -942 0
-921 -943 0
-921 -944 0
-921 -945 0
-921 -946 0
-921 -947 0
-921 -948 0
-921 -949 0
-921 -950 0
-921 -951 0
-921 -952 0
-921 -953 0
-921 -954 0
-921 -955 0
-921 -956 0
-921 -957 0
-921 -958 0
-921 -959 0
-921 -960 0
-921 -961 0
-921 -962 0
-921 -963 0
-921 -964 0
-921 -965 0
-921 -966 0
-921 -967 0
-921 -968 0
-921 -969 0
-921 -970 0
-921 -971 0
-921 -972 0
-921 -973 0
-921 -974 0
-921 -975 0
-921 -976 0
-921 -977 0
-921 -978 0
-921 -979 0
-921 -980 0
-921 -981 0
-921 -982 0
-921 -983 0
-921 -984 0
-921 -985 0
-921 -986 0
-921 -987 0
-921 -988 0
-921 -989 0
-921 -990 0
-921 -991 0
-921 -992 0
-921 -993 0
-921 -994 0
-921 -995 0
-921 -996 0
-921 -997 0
-922 -923 0
-922 -924 0
-922 -925 0
-922 -926 0
-922 -927 0
-922 -928 0
-922 -929 0
-922 -930 0
-922 -931 0
-922 -932 0
-922 -933 0
-922 -934 0
-922 -935 0
-922 -936 0
-922 -937 0
-922 -938 0
-922 -939 0
-922 -940 0
-922 -941 0
-922 -942 0
-922 -943 0
-922 -944 0
-922 -945 0
-922 -946 0
-922 -947 0
-922 -948 0
-922 -949 0
-922 -950 0
-922 -951 0
-922 -952 0
-922 -953 0
-922 -954 0
-922 -955 0
-922 -956 0
-922 -957 0
-922 -958 0
-922 -959 0
-922 -960 0
-922 -961 0
-922 -962 0
-922 -963 0
-922 -964 0
-922 -965 0
-922 -966 0
-922 -967 0
-922 -968 0
-922 -969 0
-922 -970 0
-922 -971 0
-922 -972 0
-922 -973 0
-922 -974 0
-922 -975 0
-922 -976 0
-922 -977 0
-922 -978 0
-922 -979 0
-922 -980 0
-922 -981 0
-922 -982 0
-922 -983 0
-922 -984 0
-922 -985 0
-922 -986 0
-922 -987 0
-922 -988 0
-922 -989 0
-922 -990 0
-922 -991 0
-922 -992 0
-922 -993 0
-922 -994 0
-922 -995 0
-922 -996 0
-922 -997 0
-923 -924 0
-923 -925 0
-923 -926 0
-923 -927 0
-923 -928 0
-923 -929 0
-923 -930 0
-923 -931 0
-923 -932 0
-923 -933 0
-923 -934 0
-923 -935 0
-923 -936 0
-923 -937 0
-923 -938 0
-923 -939 0
-923 -940 0
-923 -941 0
-923 -942 0
-923 -943 0
-923 -944 0
-923 -945 0
-923 -946 0
-923 -947 0
-923 -948 0
-923 -949 0
-923 -950 0
-923 -951 0
-923 -952 0
-923 -953 0
-923 -954 0
-923 -955 0
-923 -956 0
-923 -957 0
-923 -958 0
-923 -959 0
-923 -960 0
-923 -961 0
-923 -962 0
-923 -963 0
-923 -964 0
-923 -965 0
-923 -966 0
-923 -967 0
-923 -968 0
-923 -969 0
-923 -970 0
-923 -971 0
-923 -972 0
-923 -973 0
-923 -974 0
-923 -975 0
-923 -976 0
-923 -977 0
-923 -978 0
-923 -979 0
-923 -980 0
-923 -981 0
-923 -982 0
-923 -983 0
-923 -984 0
-923 -985 0
-923 -986 0
-923 -987 0
-923 -988 0
-923 -989 0
-923 -990 0
-923 -991 0
-923 -992 0
-923 -993 0
-923 -994 0
-923 -995 0
-923 -996 0
-923 -997 0
-924 -925 0
-924 -926 0
-924 -927 0
-924 -928 0
-924 -929 0
-924 -930 0
-924 -931 0
-924 -932 0
-924 -933 0
-924 -934 0
-924 -935 0
-924 -936 0
-924 -937 0
-924 -938 0
-924 -939 0
-924 -940 0
-924 -941 0
-924 -942 0
-924 -943 0
-924 -944 0
-924 -945 0
-924 -946 0
-924 -947 0
-924 -948 0
-924 -949 0
-924 -950 0
-924 -951 0
-924 -952 0
-924 -953 0
-924 -954 0
-924 -955 0
-924 -956 0
-924 -957 0
-924 -958 0
-924 -959 0
-924 -960 0
-924 -961 0
-924 -962 0
-924 -963 0
-924 -964 0
-924 -965 0
-924 -966 0
-924 -967 0
-924 -968 0
-924 -969 0
-924 -970 0
-924 -971 0
-924 -972 0
-924 -973 0
-924 -974 0
-924 -975 0
-924 -976 0
-924 -977 0
-924 -978 0
-924 -979 0
-924 -980 0
-924 -981 0
-924 -982 0
-924 -983 0
-924 -984 0
-924 -985 0
-924 -986 0
-924 -987 0
-924 -988 0
-924 -989 0
-924 -990 0
-924 -991 0
-924 -992 0
-924 -993 0
-924 -994 0
-924 -995 0
-924 -996 0
-924 -997 0
-925 -926 0
-925 -927 0
-925 -928 0
-925 -929 0
-925 -930 0
-925 -931 0
-925 -932 0
-925 -933 0
-925 -934 0
-925 -935 0
-925 -936 0
-925 -937 0
-925 -938 0
-925 -939 0
-925 -940 0
-925 -941 0
-925 -942 0
-925 -943 0
-925 -944 0
-925 -945 0
-925 -946 0
-925 -947 0
-925 -948 0
-925 -949 0
-925 -950 0
-925 -951 0
-925 -952 0
-925 -953 0
-925 -954 0
-925 -955 0
-925 -956 0
-925 -957 0
-925 -958 0
-925 -959 0
-925 -960 0
-925 -961 0
-925 -962 0
-925 -963 0
-925 -964 0
-925 -965 0
-925 -966 0
-925 -967 0
-925 -968 0
-925 -969 0
-925 -970 0
-925 -971 0
-925 -972 0
-925 -973 0
-925 -974 0
-925 -975 0
-925 -976 0
-925 -977 0
-925 -978 0
-925 -979 0
-925 -980 0
-925 -981 0
-925 -982 0
-925 -983 0
-925 -984 0
-925 -985 0
-925 -986 0
-925 -987 0
-925 -988 0
-925 -989 0
-925 -990 0
-925 -991 0
-925 -992 0
-925 -993 0
-925 -994 0
-925 -995 0
-925 -996 0
-925 -997 0
-926 -927 0
-926 -928 0
-926 -929 0
-926 -930 0
-926 -931 0
-926 -932 0
-926 -933 0
-926 -934 0
-926 -935 0
-926 -936 0
-926 -937 0
-926 -938 0
-926 -939 0
-926 -940 0
-926 -941 0
-926 -942 0
-926 -943 0
-926 -944 0
-926 -945 0
-926 -946 0
-926 -947 0
-926 -948 0
-926 -949 0
-926 -950 0
-926 -951 0
-926 -952 0
-926 -953 0
-926 -954 0
-926 -955 0
-926 -956 0
-926 -957 0
-926 -958 0
-926 -959 0
-926 -960 0
-926 -961 0
-926 -962 0
-926 -963 0
-926 -964 0
-926 -965 0
-926 -966 0
-926 -967 0
-926 -968 0
-926 -969 0
-926 -970 0
-926 -971 0
-926 -972 0
-926 -973 0
-926 -974 0
-926 -975 0
-926 -976 0
-926 -977 0
-926 -978 0
-926 -979 0
-926 -980 0
-926 -981 0
-926 -982 0
-926 -983 0
-926 -984 0
-926 -985 0
-926 -986 0
-926 -987 0
-926 -988 0
-926 -989 0
-926 -990 0
-926 -991 0
-926 -992 0
-926 -993 0
-926 -994 0
-926 -995 0
-926 -996 0
-926 -997 0
-927 -928 0
-927 -929 0
-927 -930 0
-927 -931 0
-927 -932 0
-927 -933 0
-927 -934 0
-927 -935 0
-927 -936 0
-927 -937 0
-927 -938 0
-927 -939 0
-927 -940 0
-927 -941 0
-927 -942 0
-927 -943 0
-927 -944 0
-927 -945 0
-927 -946 0
-927 -947 0
-927 -948 0
-927 -949 0
-927 -950 0
-927 -951 0
-927 -952 0
-927 -953 0
-927 -954 0
-927 -955 0
-927 -956 0
-927 -957 0
-927 -958 0
-927 -959 0
-927 -960 0
-927 -961 0
-927 -962 0
-927 -963 0
-927 -964 0
-927 -965 0
-927 -966 0
-927 -967 0
-927 -968 0
-927 -969 0
-927 -970 0
-927 -971 0
-927 -972 0
-927 -973 0
-927 -974 0
-927 -975 0
-927 -976 0
-927 -977 0
-927 -978 0
-927 -979 0
-927 -980 0
-927 -981 0
-927 -982 0
-927 -983 0
-927 -984 0
-927 -985 0
-927 -986 0
-927 -987 0
-927 -988 0
-927 -989 0
-927 -990 0
-927 -991 0
-927 -992 0
-927 -993 0
-927 -994 0
-927 -995 0
-927 -996 0
-927 -997 0
-928 -929 0
-928 -930 0
-928 -931 0
-928 -932 0
-928 -933 0
-928 -934 0
-928 -935 0
-928 -936 0
-928 -937 0
-928 -938 0
-928 -939 0
-928 -940 0
-928 -941 0
-928 -942 0
-928 -943 0
-928 -944 0
-928 -945 0
-928 -946 0
-928 -947 0
-928 -948 0
-928 -949 0
-928 -950 0
-928 -951 0
-928 -952 0
-928 -953 0
-928 -954 0
-928 -955 0
-928 -956 0
-928 -957 0
-928 -958 0
-928 -959 0
-928 -960 0
-928 -961 0
-928 -962 0
-928 -963 0
-928 -964 0
-928 -965 0
-928 -966 0
-928 -967 0
-928 -968 0
-928 -969 0
-928 -970 0
-928 -971 0
-928 -972 0
-928 -973 0
-928 -974 0
-928 -975 0
-928 -976 0
-928 -977 0
-928 -978 0
-928 -979 0
-928 -980 0
-928 -981 0
-928 -982 0
-928 -983 0
-928 -984 0
-928 -985 0
-928 -986 0
-928 -987 0
-928 -988 0
-928 -989 0
-928 -990 0
-928 -991 0
-928 -992 0
-928 -993 0
-928 -994 0
-928 -995 0
-928 -996 0
-928 -997 0
-929 -930 0
-929 -931 0
-929 -932 0
-929 -933 0
-929 -934 0
-929 -935 0
-929 -936 0
-929 -937 0
-929 -938 0
-929 -939 0
-929 -940 0
-929 -941 0
-929 -942 0
-929 -943 0
-929 -944 0
-929 -945 0
-929 -946 0
-929 -947 0
-929 -948 0
-929 -949 0
-929 -950 0
-929 -951 0
-929 -952 0
-929 -953 0
-929 -954 0
-929 -955 0
-929 -956 0
-929 -957 0
-929 -958 0
-929 -959 0
-929 -960 0
-929 -961 0
-929 -962 0
-929 -963 0
-929 -964 0
-929 -965 0
-929 -966 0
-929 -967 0
-929 -968 0
-929 -969 0
-929 -970 0
-929 -971 0
-929 -972 0
-929 -973 0
-929 -974 0
-929 -975 0
-929 -976 0
-929 -977 0
-929 -978 0
-929 -979 0
-929 -980 0
-929 -981 0
-929 -982 0
-929 -983 0
-929 -984 0
-929 -985 0
-929 -986 0
-929 -987 0
-929 -988 0
-929 -989 0
-929 -990 0
-929 -991 0
-929 -992 0
-929 -993 0
-929 -994 0
-929 -995 0
-929 -996 0
-929 -997 0
-930 -931 0
-930 -932 0
-930 -933 0
-930 -934 0
-930 -935 0
-930 -936 0
-930 -937 0
-930 -938 0
-930 -939 0
-930 -940 0
-930 -941 0
-930 -942 0
-930 -943 0
-930 -944 0
-930 -945 0
-930 -946 0
-930 -947 0
-930 -948 0
-930 -949 0
-930 -950 0
-930 -951 0
-930 -952 0
-930 -953 0
-930 -954 0
-930 -955 0
-930 -956 0
-930 -957 0
-930 -958 0
-930 -959 0
-930 -960 0
-930 -961 0
-930 -962 0
-930 -963 0
-930 -964 0
-930 -965 0
-930 -966 0
-930 -967 0
-930 -968 0
-930 -969 0
-930 -970 0
-930 -971 0
-930 -972 0
-930 -973 0
-930 -974 0
-930 -975 0
-930 -976 0
-930 -977 0
-930 -978 0
-930 -979 0
-930 -980 0
-930 -981 0
-930 -982 0
-930 -983 0
-930 -984 0
-930 -985 0
-930 -986 0
-930 -987 0
-930 -988 0
-930 -989 0
-930 -990 0
-930 -991 0
-930 -992 0
-930 -993 0
-930 -994 0
-930 -995 0
-930 -996 0
-930 -997 0
-931 -932 0
-931 -933 0
-931 -934 0
-931 -935 0
-931 -936 0
-931 -937 0
-931 -938 0
-931 -939 0
-931 -940 0
-931 -941 0
-931 -942 0
-931 -943 0
-931 -944 0
-931 -945 0
-931 -946 0
-931 -947 0
-931 -948 0
-931 -949 0
-931 -950 0
-931 -951 0
-931 -952 0
-931 -953 0
-931 -954 0
-931 -955 0
-931 -956 0
-931 -957 0
-931 -958 0
-931 -959 0
-931 -960 0
-931 -961 0
-931 -962 0
-931 -963 0
-931 -964 0
-931 -965 0
-931 -966 0
-931 -967 0
-931 -968 0
-931 -969 0
-931 -970 0
-931 -971 0
-931 -972 0
-931 -973 0
-931 -974 0
-931 -975 0
-931 -976 0
-931 -977 0
-931 -978 0
-931 -979 0
-931 -980 0
-931 -981 0
-931 -982 0
-931 -983 0
-931 -984 0
-931 -985 0
-931 -986 0
-931 -987 0
-931 -988 0
-931 -989 0
-931 -990 0
-931 -991 0
-931 -992 0
-931 -993 0
-931 -994 0
-931 -995 0
-931 -996 0
-931 -997 0
-932 -933 0
-932 -934 0
-932 -935 0
-932 -936 0
-932 -937 0
-932 -938 0
-932 -939 0
-932 -940 0
-932 -941 0
-932 -942 0
-932 -943 0
-932 -944 0
-932 -945 0
-932 -946 0
-932 -947 0
-932 -948 0
-932 -949 0
-932 -950 0
-932 -951 0
-932 -952 0
-932 -953 0
-932 -954 0
-932 -955 0
-932 -956 0
-932 -957 0
-932 -958 0
-932 -959 0
-932 -960 0
-932 -961 0
-932 -962 0
-932 -963 0
-932 -964 0
-932 -965 0
-932 -966 0
-932 -967 0
-932 -968 0
-932 -969 0
-932 -970 0
-932 -971 0
-932 -972 0
-932 -973 0
-932 -974 0
-932 -975 0
-932 -976 0
-932 -977 0
-932 -978 0
-932 -979 0
-932 -980 0
-932 -981 0
-932 -982 0
-932 -983 0
-932 -984 0
-932 -985 0
-932 -986 0
-932 -987 0
-932 -988 0
-932 -989 0
-932 -990 0
-932 -991 0
-932 -992 0
-932 -993 0
-932 -994 0
-932 -995 0
-932 -996 0
-932 -997 0
-933 -934 0
-933 -935 0
-933 -936 0
-933 -937 0
-933 -938 0
-933 -939 0
-933 -940 0
-933 -941 0
-933 -942 0
-933 -943 0
-933 -944 0
-933 -945 0
-933 -946 0
-933 -947 0
-933 -948 0
-933 -949 0
-933 -950 0
-933 -951 0
-933 -952 0
-933 -953 0
-933 -954 0
-933 -955 0
-933 -956 0
-933 -957 0
-933 -958 0
-933 -959 0
-933 -960 0
-933 -961 0
-933 -962 0
-933 -963 0
-933 -964 0
-933 -965 0
-933 -966 0
-933 -967 0
-933 -968 0
-933 -969 0
-933 -970 0
-933 -971 0
-933 -972 0
-933 -973 0
-933 -974 0
-933 -975 0
-933 -976 0
-933 -977 0
-933 -978 0
-933 -979 0
-933 -980 0
-933 -981 0
-933 -982 0
-933 -983 0
-933 -984 0
-933 -985 0
-933 -986 0
-933 -987 0
-933 -988 0
-933 -989 0
-933 -990 0
-933 -991 0
-933 -992 0
-933 -993 0
-933 -994 0
-933 -995 0
-933 -996 0
-933 -997 0
-934 -935 0
-934 -936 0
-934 -937 0
-934 -938 0
-934 -939 0
-934 -940 0
-934 -941 0
-934 -942 0
-934 -943 0
-934 -944 0
-934 -945 0
-934 -946 0
-934 -947 0
-934 -948 0
-934 -949 0
-934 -950 0
-934 -951 0
-934 -952 0
-934 -953 0
-934 -954 0
-934 -955 0
-934 -956 0
-934 -957 0
-934 -958 0
-934 -959 0
-934 -960 0
-934 -961 0
-934 -962 0
-934 -963 0
-934 -964 0
-934 -965 0
-934 -966 0
-934 -967 0
-934 -968 0
-934 -969 0
-934 -970 0
-934 -971 0
-934 -972 0
-934 -973 0
-934 -974 0
-934 -975 0
-934 -976 0
-934 -977 0
-934 -978 0
-934 -979 0
-934 -980 0
-934 -981 0
-934 -982 0
-934 -983 0
-934 -984 0
-934 -985 0
-934 -986 0
-934 -987 0
-934 -988 0
-934 -989 0
-934 -990 0
-934 -991 0
-934 -992 0
-934 -993 0
-934 -994 0
-934 -995 0
-934 -996 0
-934 -997 0
-935 -936 0
-935 -937 0
-935 -938 0
-935 -939 0
-935 -940 0
-935 -941 0
-935 -942 0
-935 -943 0
-935 -944 0
-935 -945 0
-935 -946 0
-935 -947 0
-935 -948 0
-935 -949 0
-935 -950 0
-935 -951 0
-935 -952 0
-935 -953 0
-935 -954 0
-935 -955 0
-935 -956 0
-935 -957 0
-935 -958 0
-935 -959 0
-935 -960 0
-935 -961 0
-935 -962 0
-935 -963 0
-935 -964 0
-935 -965 0
-935 -966 0
-935 -967 0
-935 -968 0
-935 -969 0
-935 -970 0
-935 -971 0
-935 -972 0
-935 -973 0
-935 -974 0
-935 -975 0
-935 -976 0
-935 -977 0
-935 -978 0
-935 -979 0
-935 -980 0
-935 -981 0
-935 -982 0
-935 -983 0
-935 -984 0
-935 -985 0
-935 -986 0
-935 -987 0
-935 -988 0
-935 -989 0
-935 -990 0
-935 -991 0
-935 -992 0
-935 -993 0
-935 -994 0
-935 -995 0
-935 -996 0
-935 -997 0
-936 -937 0
-936 -938 0
-936 -939 0
-936 -940 0
-936 -941 0
-936 -942 0
-936 -943 0
-936 -944 0
-936 -945 0
-936 -946 0
-936 -947 0
-936 -948 0
-936 -949 0
-936 -950 0
-936 -951 0
-936 -952 0
-936 -953 0
-936 -954 0
-936 -955 0
-936 -956 0
-936 -957 0
-936 -958 0
-936 -959 0
-936 -960 0
-936 -961 0
-936 -962 0
-936 -963 0
-936 -964 0
-936 -965 0
-936 -966 0
-936 -967 0
-936 -968 0
-936 -969 0
-936 -970 0
-936 -971 0
-936 -972 0
-936 -973 0
-936 -974 0
-936 -975 0
-936 -976 0
-936 -977 0
-936 -978 0
-936 -979 0
-936 -980 0
-936 -981 0
-936 -982 0
-936 -983 0
-936 -984 0
-936 -985 0
-936 -986 0
-936 -987 0
-936 -988 0
-936 -989 0
-936 -990 0
-936 -991 0
-936 -992 0
-936 -993 0
-936 -994 0
-936 -995 0
-936 -996 0
-936 -997 0
-937 -938 0
-937 -939 0
-937 -940 0
-937 -941 0
-937 -942 0
-937 -943 0
-937 -944 0
-937 -945 0
-937 -946 0
-937 -947 0
-937 -948 0
-937 -949 0
-937 -950 0
-937 -951 0
-937 -952 0
-937 -953 0
-937 -954 0
-937 -955 0
-937 -956 0
-937 -957 0
-937 -958 0
-937 -959 0
-937 -960 0
-937 -961 0
-937 -962 0
-937 -963 0
-937 -964 0
-937 -965 0
-937 -966 0
-937 -967 0
-937 -968 0
-937 -969 0
-937 -970 0
-937 -971 0
-937 -972 0
-937 -973 0
-937 -974 0
-937 -975 0
-937 -976 0
-937 -977 0
-937 -978 0
-937 -979 0
-937 -980 0
-937 -981 0
-937 -982 0
-937 -983 0
-937 -984 0
-937 -985 0
-937 -986 0
-937 -987 0
-937 -988 0
-937 -989 0
-937 -990 0
-937 -991 0
-937 -992 0
-937 -993 0
-937 -994 0
-937 -995 0
-937 -996 0
-937 -997 0
-938 -939 0
-938 -940 0
-938 -941 0
-938 -942 0
-938 -943 0
-938 -944 0
-938 -945 0
-938 -946 0
-938 -947 0
-938 -948 0
-938 -949 0
-938 -950 0
-938 -951 0
-938 -952 0
-938 -953 0
-938 -954 0
-938 -955 0
-938 -956 0
-938 -957 0
-938 -958 0
-938 -959 0
-938 -960 0
-938 -961 0
-938 -962 0
-938 -963 0
-938 -964 0
-938 -965 0
-938 -966 0
-938 -967 0
-938 -968 0
-938 -969 0
-938 -970 0
-938 -971 0
-938 -972 0
-938 -973 0
-938 -974 0
-938 -975 0
-938 -976 0
-938 -977 0
-938 -978 0
-938 -979 0
-938 -980 0
-938 -981 0
-938 -982 0
-938 -983 0
-938 -984 0
-938 -985 0
-938 -986 0
-938 -987 0
-938 -988 0
-938 -989 0
-938 -990 0
-938 -991 0
-938 -992 0
-938 -993 0
-938 -994 0
-938 -995 0
-938 -996 0
-938 -997 0
-939 -940 0
-939 -941 0
-939 -942 0
-939 -943 0
-939 -944 0
-939 -945 0
-939 -946 0
-939 -947 0
-939 -948 0
-939 -949 0
-939 -950 0
-939 -951 0
-939 -952 0
-939 -953 0
-939 -954 0
-939 -955 0
-939 -956 0
-939 -957 0
-939 -958 0
-939 -959 0
-939 -960 0
-939 -961 0
-939 -962 0
-939 -963 0
-939 -964 0
-939 -965 0
-939 -966 0
-939 -967 0
-939 -968 0
-939 -969 0
-939 -970 0
-939 -971 0
-939 -972 0
-939 -973 0
-939 -974 0
-939 -975 0
-939 -976 0
-939 -977 0
-939 -978 0
-939 -979 0
-939 -980 0
-939 -981 0
-939 -982 0
-939 -983 0
-939 -984 0
-939 -985 0
-939 -986 0
-939 -987 0
-939 -988 0
-939 -989 0
-939 -990 0
-939 -991 0
-939 -992 0
-939 -993 0
-939 -994 0
-939 -995 0
-939 -996 0
-939 -997 0
-940 -941 0
-940 -942 0
-940 -943 0
-940 -944 0
-940 -945 0
-940 -946 0
-940 -947 0
-940 -948 0
-940 -949 0
-940 -950 0
-940 -951 0
-940 -952 0
-940 -953 0
-940 -954 0
-940 -955 0
-940 -956 0
-940 -957 0
-940 -958 0
-940 -959 0
-940 -960 0
-940 -961 0
-940 -962 0
-940 -963 0
-940 -964 0
-940 -965 0
-940 -966 0
-940 -967 0
-940 -968 0
-940 -969 0
-940 -970 0
-940 -971 0
-940 -972 0
-940 -973 0
-940 -974 0
-940 -975 0
-940 -976 0
-940 -977 0
-940 -978 0
-940 -979 0
-940 -980 0
-940 -981 0
-940 -982 0
-940 -983 0
-940 -984 0
-940 -985 0
-940 -986 0
-940 -987 0
-940 -988 0
-940 -989 0
-940 -990 0
-940 -991 0
-940 -992 0
-940 -993 0
-940 -994 0
-940 -995 0
-940 -996 0
-940 -997 0
-941 -942 0
-941 -943 0
-941 -944 0
-941 -945 0
-941 -946 0
-941 -947 0
-941 -948 0
-941 -949 0
-941 -950 0
-941 -951 0
-941 -952 0
-941 -953 0
-941 -954 0
-941 -955 0
-941 -956 0
-941 -957 0
-941 -958 0
-941 -959 0
-941 -960 0
-941 -961 0
-941 -962 0
-941 -963 0
-941 -964 0
-941 -965 0
-941 -966 0
-941 -967 0
-941 -968 0
-941 -969 0
-941 -970 0
-941 -971 0
-941 -972 0
-941 -973 0
-941 -974 0
-941 -975 0
-941 -976 0
-941 -977 0
-941 -978 0
-941 -979 0
-941 -980 0
-941 -981 0
-941 -982 0
-941 -983 0
-941 -984 0
-941 -985 0
-941 -986 0
-941 -987 0
-941 -988 0
-941 -989 0
-941 -990 0
-941 -991 0
-941 -992 0
-941 -993 0
-941 -994 0
-941 -995 0
-941 -996 0
-941 -997 0
-942 -943 0
-942 -944 0
-942 -945 0
-942 -946 0
-942 -947 0
-942 -948 0
-942 -949 0
-942 -950 0
-942 -951 0
-942 -952 0
-942 -953 0
-942 -954 0
-942 -955 0
-942 -956 0
-942 -957 0
-942 -958 0
-942 -959 0
-942 -960 0
-942 -961 0
-942 -962 0
-942 -963 0
-942 -964 0
-942 -965 0
-942 -966 0
-942 -967 0
-942 -968 0
-942 -969 0
-942 -970 0
-942 -971 0
-942 -972 0
-942 -973 0
-942 -974 0
-942 -975 0
-942 -976 0
-942 -977 0
-942 -978 0
-942 -979 0
-942 -980 0
-942 -981 0
-942 -982 0
-942 -983 0
-942 -984 0
-942 -985 0
-942 -986 0
-942 -987 0
-942 -988 0
-942 -989 0
-942 -990 0
-942 -991 0
-942 -992 0
-942 -993 0
-942 -994 0
-942 -995 0
-942 -996 0
-942 -997 0
-943 -944 0
-943 -945 0
-943 -946 0
-943 -947 0
-943 -948 0
-943 -949 0
-943 -950 0
-943 -951 0
-943 -952 0
-943 -953 0
-943 -954 0
-943 -955 0
-943 -956 0
-943 -957 0
-943 -958 0
-943 -959 0
-943 -960 0
-943 -961 0
-943 -962 0
-943 -963 0
-943 -964 0
-943 -965 0
-943 -966 0
-943 -967 0
-943 -968 0
-943 -969 0
-943 -970 0
-943 -971 0
-943 -972 0
-943 -973 0
-943 -974 0
-943 -975 0
-943 -976 0
-943 -977 0
-943 -978 0
-943 -979 0
-943 -980 0
-943 -981 0
-943 -982 0
-943 -983 0
-943 -984 0
-943 -985 0
-943 -986 0
-943 -987 0
-943 -988 0
-943 -989 0
-943 -990 0
-943 -991 0
-943 -992 0
-943 -993 0
-943 -994 0
-943 -995 0
-943 -996 0
-943 -997 0
-944 -945 0
-944 -946 0
-944 -947 0
-944 -948 0
-944 -949 0
-944 -950 0
-944 -951 0
-944 -952 0
-944 -953 0
-944 -954 0
-944 -955 0
-944 -956 0
-944 -957 0
-944 -958 0
-944 -959 0
-944 -960 0
-944 -961 0
-944 -962 0
-944 -963 0
-944 -964 0
-944 -965 0
-944 -966 0
-944 -967 0
-944 -968 0
-944 -969 0
-944 -970 0
-944 -971 0
-944 -972 0
-944 -973 0
-944 -974 0
-944 -975 0
-944 -976 0
-944 -977 0
-944 -978 0
-944 -979 0
-944 -980 0
-944 -981 0
-944 -982 0
-944 -983 0
-944 -984 0
-944 -985 0
-944 -986 0
-944 -987 0
-944 -988 0
-944 -989 0
-944 -990 0
-944 -991 0
-944 -992 0
-944 -993 0
-944 -994 0
-944 -995 0
-944 -996 0
-944 -997 0
-945 -946 0
-945 -947 0
-945 -948 0
-945 -949 0
-945 -950 0
-945 -951 0
-945 -952 0
-945 -953 0
-945 -954 0
-945 -955 0
-945 -956 0
-945 -957 0
-945 -958 0
-945 -959 0
-945 -960 0
-945 -961 0
-945 -962 0
-945 -963 0
-945 -964 0
-945 -965 0
-945 -966 0
-945 -967 0
-945 -968 0
-945 -969 0
-945 -970 0
-945 -971 0
-945 -972 0
-945 -973 0
-945 -974 0
-945 -975 0
-945 -976 0
-945 -977 0
-945 -978 0
-945 -979 0
-945 -980 0
-945 -981 0
-945 -982 0
-945 -983 0
-945 -984 0
-945 -985 0
-945 -986 0
-945 -987 0
-945 -988 0
-945 -989 0
-945 -990 0
-945 -991 0
-945 -992 0
-945 -993 0
-945 -994 0
-945 -995 0
-945 -996 0
-945 -997 0
-946 -947 0
-946 -948 0
-946 -949 0
-946 -950 0
-946 -951 0
-946 -952 0
-946 -953 0
-946 -954 0
-946 -955 0
-946 -956 0
-946 -957 0
-946 -958 0
-946 -959 0
-946 -960 0
-946 -961 0
-946 -962 0
-946 -963 0
-946 -964 0
-946 -965 0
-946 -966 0
-946 -967 0
-946 -968 0
-946 -969 0
-946 -970 0
-946 -971 0
-946 -972 0
-946 -973 0
-946 -974 0
-946 -975 0
-946 -976 0
-946 -977 0
-946 -978 0
-946 -979 0
-946 -980 0
-946 -981 0
-946 -982 0
-946 -983 0
-946 -984 0
-946 -985 0
-946 -986 0
-946 -987 0
-946 -988 0
-946 -989 0
-946 -990 0
-946 -991 0
-946 -992 0
-946 -993 0
-946 -994 0
-946 -995 0
-946 -996 0
-946 -997 0
-947 -948 0
-947 -949 0
-947 -950 0
-947 -951 0
-947 -952 0
-947 -953 0
-947 -954 0
-947 -955 0
-947 -956 0
-947 -957 0
-947 -958 0
-947 -959 0
-947 -960 0
-947 -961 0
-947 -962 0
-947 -963 0
-947 -964 0
-947 -965 0
-947 -966 0
-947 -967 0
-947 -968 0
-947 -969 0
-947 -970 0
-947 -971 0
-947 -972 0
-947 -973 0
-947 -974 0
-947 -975 0
-947 -976 0
-947 -977 0
-947 -978 0
-947 -979 0
-947 -980 0
-947 -981 0
-947 -982 0
-947 -983 0
-947 -984 0
-947 -985 0
-947 -986 0
-947 -987 0
-947 -988 0
-947 -989 0
-947 -990 0
-947 -991 0
-947 -992 0
-947 -993 0
-947 -994 0
-947 -995 0
-947 -996 0
-947 -997 0
-948 -949 0
-948 -950 0
-948 -951 0
-948 -952 0
-948 -953 0
-948 -954 0
-948 -955 0
-948 -956 0
-948 -957 0
-948 -958 0
-948 -959 0
-948 -960 0
-948 -961 0
-948 -962 0
-948 -963 0
-948 -964 0
-948 -965 0
-948 -966 0
-948 -967 0
-948 -968 0
-948 -969 0
-948 -970 0
-948 -971 0
-948 -972 0
-948 -973 0
-948 -974 0
-948 -975 0
-948 -976 0
-948 -977 0
-948 -978 0
-948 -979 0
-948 -980 0
-948 -981 0
-948 -982 0
-948 -983 0
-948 -984 0
-948 -985 0
-948 -986 0
-948 -987 0
-948 -988 0
-948 -989 0
-948 -990 0
-948 -991 0
-948 -992 0
-948 -993 0
-948 -994 0
-948 -995 0
-948 -996 0
-948 -997 0
-949 -950 0
-949 -951 0
-949 -952 0
-949 -953 0
-949 -954 0
-949 -955 0
-949 -956 0
-949 -957 0
-949 -958 0
-949 -959 0
-949 -960 0
-949 -961 0
-949 -962 0
-949 -963 0
-949 -964 0
-949 -965 0
-949 -966 0
-949 -967 0
-949 -968 0
-949 -969 0
-949 -970 0
-949 -971 0
-949 -972 0
-949 -973 0
-949 -974 0
-949 -975 0
-949 -976 0
-949 -977 0
-949 -978 0
-949 -979 0
-949 -980 0
-949 -981 0
-949 -982 0
-949 -983 0
-949 -984 0
-949 -985 0
-949 -986 0
-949 -987 0
-949 -988 0
-949 -989 0
-949 -990 0
-949 -991 0
-949 -992 0
-949 -993 0
-949 -994 0
-949 -995 0
-949 -996 0
-949 -997 0
-950 -951 0
-950 -952 0
-950 -953 0
-950 -954 0
-950 -955 0
-950 -956 0
-950 -957 0
-950 -958 0
-950 -959 0
-950 -960 0
-950 -961 0
-950 -962 0
-950 -963 0
-950 -964 0
-950 -965 0
-950 -966 0
-950 -967 0
-950 -968 0
-950 -969 0
-950 -970 0
-950 -971 0
-950 -972 0
-950 -973 0
-950 -974 0
-950 -975 0
-950 -976 0
-950 -977 0
-950 -978 0
-950 -979 0
-950 -980 0
-950 -981 0
-950 -982 0
-950 -983 0
-950 -984 0
-950 -985 0
-950 -986 0
-950 -987 0
-950 -988 0
-950 -989 0
-950 -990 0
-950 -991 0
-950 -992 0
-950 -993 0
-950 -994 0
-950 -995 0
-950 -996 0
-950 -997 0
-951 -952 0
-951 -953 0
-951 -954 0
-951 -955 0
-951 -956 0
-951 -957 0
-951 -958 0
-951 -959 0
-951 -960 0
-951 -961 0
-951 -962 0
-951 -963 0
-951 -964 0
-951 -965 0
-951 -966 0
-951 -967 0
-951 -968 0
-951 -969 0
-951 -970 0
-951 -971 0
-951 -972 0
-951 -973 0
-951 -974 0
-951 -975 0
-951 -976 0
-951 -977 0
-951 -978 0
-951 -979 0
-951 -980 0
-951 -981 0
-951 -982 0
-951 -983 0
-951 -984 0
-951 -985 0
-951 -986 0
-951 -987 0
-951 -988 0
-951 -989 0
-951 -990 0
-951 -991 0
-951 -992 0
-951 -993 0
-951 -994 0
-951 -995 0
-951 -996 0
-951 -997 0
-952 -953 0
-952 -954 0
-952 -955 0
-952 -956 0
-952 -957 0
-952 -958 0
-952 -959 0
-952 -960 0
-952 -961 0
-952 -962 0
-952 -963 0
-952 -964 0
-952 -965 0
-952 -966 0
-952 -967 0
-952 -968 0
-952 -969 0
-952 -970 0
-952 -971 0
-952 -972 0
-952 -973 0
-952 -974 0
-952 -975 0
-952 -976 0
-952 -977 0
-952 -978 0
-952 -979 0
-952 -980 0
-952 -981 0
-952 -982 0
-952 -983 0
-952 -984 0
-952 -985 0
-952 -986 0
-952 -987 0
-952 -988 0
-952 -989 0
-952 -990 0
-952 -991 0
-952 -992 0
-952 -993 0
-952 -994 0
-952 -995 0
-952 -996 0
-952 -997 0
-953 -954 0
-953 -955 0
-953 -956 0
-953 -957 0
-953 -958 0
-953 -959 0
-953 -960 0
-953 -961 0
-953 -962 0
-953 -963 0
-953 -964 0
-953 -965 0
-953 -966 0
-953 -967 0
-953 -968 0
-953 -969 0
-953 -970 0
-953 -971 0
-953 -972 0
-953 -973 0
-953 -974 0
-953 -975 0
-953 -976 0
-953 -977 0
-953 -978 0
-953 -979 0
-953 -980 0
-953 -981 0
-953 -982 0
-953 -983 0
-953 -984 0
-953 -985 0
-953 -986 0
-953 -987 0
-953 -988 0
-953 -989 0
-953 -990 0
-953 -991 0
-953 -992 0
-953 -993 0
-953 -994 0
-953 -995 0
-953 -996 0
-953 -997 0
-954 -955 0
-954 -956 0
-954 -957 0
-954 -958 0
-954 -959 0
-954 -960 0
-954 -961 0
-954 -962 0
-954 -963 0
-954 -964 0
-954 -965 0
-954 -966 0
-954 -967 0
-954 -968 0
-954 -969 0
-954 -970 0
-954 -971 0
-954 -972 0
-954 -973 0
-954 -974 0
-954 -975 0
-954 -976 0
-954 -977 0
-954 -978 0
-954 -979 0
-954 -980 0
-954 -981 0
-954 -982 0
-954 -983 0
-954 -984 0
-954 -985 0
-954 -986 0
-954 -987 0
-954 -988 0
-954 -989 0
-954 -990 0
-954 -991 0
-954 -992 0
-954 -993 0
-954 -994 0
-954 -995 0
-954 -996 0
-954 -997 0
-955 -956 0
-955 -957 0
-955 -958 0
-955 -959 0
-955 -960 0
-955 -961 0
-955 -962 0
-955 -963 0
-955 -964 0
-955 -965 0
-955 -966 0
-955 -967 0
-955 -968 0
-955 -969 0
-955 -970 0
-955 -971 0
-955 -972 0
-955 -973 0
-955 -974 0
-955 -975 0
-955 -976 0
-955 -977 0
-955 -978 0
-955 -979 0
-955 -980 0
-955 -981 0
-955 -982 0
-955 -983 0
-955 -984 0
-955 -985 0
-955 -986 0
-955 -987 0
-955 -988 0
-955 -989 0
-955 -990 0
-955 -991 0
-955 -992 0
-955 -993 0
-955 -994 0
-955 -995 0
-955 -996 0
-955 -997 0
-956 -957 0
-956 -958 0
-956 -959 0
-956 -960 0
-956 -961 0
-956 -962 0
-956 -963 0
-956 -964 0
-956 -965 0
-956 -966 0
-956 -967 0
-956 -968 0
-956 -969 0
-956 -970 0
-956 -971 0
-956 -972 0
-956 -973 0
-956 -974 0
-956 -975 0
-956 -976 0
-956 -977 0
-956 -978 0
-956 -979 0
-956 -980 0
-956 -981 0
-956 -982 0
-956 -983 0
-956 -984 0
-956 -985 0
-956 -986 0
-956 -987 0
-956 -988 0
-956 -989 0
-956 -990 0
-956 -991 0
-956 -992 0
-956 -993 0
-956 -994 0
-956 -995 0
-956 -996 0
-956 -997 0
-957 -958 0
-957 -959 0
-957 -960 0
-957 -961 0
-957 -962 0
-957 -963 0
-957 -964 0
-957 -965 0
-957 -966 0
-957 -967 0
-957 -968 0
-957 -969 0
-957 -970 0
-957 -971 0
-957 -972 0
-957 -973 0
-957 -974 0
-957 -975 0
-957 -976 0
-957 -977 0
-957 -978 0
-957 -979 0
-957 -980 0
-957 -981 0
-957 -982 0
-957 -983 0
-957 -984 0
-957 -985 0
-957 -986 0
-957 -987 0
-957 -988 0
-957 -989 0
-957 -990 0
-957 -991 0
-957 -992 0
-957 -993 0
-957 -994 0
-957 -995 0
-957 -996 0
-957 -997 0
-958 -959 0
-958 -960 0
-958 -961 0
-958 -962 0
-958 -963 0
-958 -964 0
-958 -965 0
-958 -966 0
-958 -967 0
-958 -968 0
-958 -969 0
-958 -970 0
-958 -971 0
-958 -972 0
-958 -973 0
-958 -974 0
-958 -975 0
-958 -976 0
-958 -977 0
-958 -978 0
-958 -979 0
-958 -980 0
-958 -981 0
-958 -982 0
-958 -983 0
-958 -984 0
-958 -985 0
-958 -986 0
-958 -987 0
-958 -988 0
-958 -989 0
-958 -990 0
-958 -991 0
-958 -992 0
-958 -993 0
-958 -994 0
-958 -995 0
-958 -996 0
-958 -997 0
-959 -960 0
-959 -961 0
-959 -962 0
-959 -963 0
-959 -964 0
-959 -965 0
-959 -966 0
-959 -967 0
-959 -968 0
-959 -969 0
-959 -970 0
-959 -971 0
-959 -972 0
-959 -973 0
-959 -974 0
-959 -975 0
-959 -976 0
-959 -977 0
-959 -978 0
-959 -979 0
-959 -980 0
-959 -981 0
-959 -982 0
-959 -983 0
-959 -984 0
-959 -985 0
-959 -986 0
-959 -987 0
-959 -988 0
-959 -989 0
-959 -990 0
-959 -991 0
-959 -992 0
-959 -993 0
-959 -994 0
-959 -995 0
-959 -996 0
-959 -997 0
-960 -961 0
-960 -962 0
-960 -963 0
-960 -964 0
-960 -965 0
-960 -966 0
-960 -967 0
-960 -968 0
-960 -969 0
-960 -970 0
-960 -971 0
-960 -972 0
-960 -973 0
-960 -974 0
-960 -975 0
-960 -976 0
-960 -977 0
-960 -978 0
-960 -979 0
-960 -980 0
-960 -981 0
-960 -982 0
-960 -983 0
-960 -984 0
-960 -985 0
-960 -986 0
-960 -987 0
-960 -988 0
-960 -989 0
-960 -990 0
-960 -991 0
-960 -992 0
-960 -993 0
-960 -994 0
-960 -995 0
-960 -996 0
-960 -997 0
-961 -962 0
-961 -963 0
-961 -964 0
-961 -965 0
-961 -966 0
-961 -967 0
-961 -968 0
-961 -969 0
-961 -970 0
-961 -971 0
-961 -972 0
-961 -973 0
-961 -974 0
-961 -975 0
-961 -976 0
-961 -977 0
-961 -978 0
-961 -979 0
-961 -980 0
-961 -981 0
-961 -982 0
-961 -983 0
-961 -984 0
-961 -985 0
-961 -986 0
-961 -987 0
-961 -988 0
-961 -989 0
-961 -990 0
-961 -991 0
-961 -992 0
-961 -993 0
-961 -994 0
-961 -995 0
-961 -996 0
-961 -997 0
-962 -963 0
-962 -964 0
-962 -965 0
-962 -966 0
-962 -967 0
-962 -968 0
-962 -969 0
-962 -970 0
-962 -971 0
-962 -972 0
-962 -973 0
-962 -974 0
-962 -975 0
-962 -976 0
-962 -977 0
-962 -978 0
-962 -979 0
-962 -980 0
-962 -981 0
-962 -982 0
-962 -983 0
-962 -984 0
-962 -985 0
-962 -986 0
-962 -987 0
-962 -988 0
-962 -989 0
-962 -990 0
-962 -991 0
-962 -992 0
-962 -993 0
-962 -994 0
-962 -995 0
-962 -996 0
-962 -997 0
-963 -964 0
-963 -965 0
-963 -966 0
-963 -967 0
-963 -968 0
-963 -969 0
-963 -970 0
-963 -971 0
-963 -972 0
-963 -973 0
-963 -974 0
-963 -975 0
-963 -976 0
-963 -977 0
-963 -978 0
-963 -979 0
-963 -980 0
-963 -981 0
-963 -982 0
-963 -983 0
-963 -984 0
-963 -985 0
-963 -986 0
-963 -987 0
-963 -988 0
-963 -989 0
-963 -990 0
-963 -991 0
-963 -992 0
-963 -993 0
-963 -994 0
-963 -995 0
-963 -996 0
-963 -997 0
-964 -965 0
-964 -966 0
-964 -967 0
-964 -968 0
-964 -969 0
-964 -970 0
-964 -971 0
-964 -972 0
-964 -973 0
-964 -974 0
-964 -975 0
-964 -976 0
-964 -977 0
-964 -978 0
-964 -979 0
-964 -980 0
-964 -981 0
-964 -982 0
-964 -983 0
-964 -984 0
-964 -985 0
-964 -986 0
-964 -987 0
-964 -988 0
-964 -989 0
-964 -990 0
-964 -991 0
-964 -992 0
-964 -993 0
-964 -994 0
-964 -995 0
-964 -996 0
-964 -997 0
-965 -966 0
-965 -967 0
-965 -968 0
-965 -969 0
-965 -970 0
-965 -971 0
-965 -972 0
-965 -973 0
-965 -974 0
-965 -975 0
-965 -976 0
-965 -977 0
-965 -978 0
-965 -979 0
-965 -980 0
-965 -981 0
-965 -982 0
-965 -983 0
-965 -984 0
-965 -985 0
-965 -986 0
-965 -987 0
-965 -988 0
-965 -989 0
-965 -990 0
-965 -991 0
-965 -992 0
-965 -993 0
-965 -994 0
-965 -995 0
-965 -996 0
-965 -997 0
-966 -967 0
-966 -968 0
-966 -969 0
-966 -970 0
-966 -971 0
-966 -972 0
-966 -973 0
-966 -974 0
-966 -975 0
-966 -976 0
-966 -977 0
-966 -978 0
-966 -979 0
-966 -980 0
-966 -981 0
-966 -982 0
-966 -983 0
-966 -984 0
-966 -985 0
-966 -986 0
-966 -987 0
-966 -988 0
-966 -989 0
-966 -990 0
-966 -991 0
-966 -992 0
-966 -993 0
-966 -994 0
-966 -995 0
-966 -996 0
-966 -997 0
-967 -968 0
-967 -969 0
-967 -970 0
-967 -971 0
-967 -972 0
-967 -973 0
-967 -974 0
-967 -975 0
-967 -976 0
-967 -977 0
-967 -978 0
-967 -979 0
-967 -980 0
-967 -981 0
-967 -982 0
-967 -983 0
-967 -984 0
-967 -985 0
-967 -986 0
-967 -987 0
-967 -988 0
-967 -989 0
-967 -990 0
-967 -991 0
-967 -992 0
-967 -993 0
-967 -994 0
-967 -995 0
-967 -996 0
-967 -997 0
-968 -969 0
-968 -970 0
-968 -971 0
-968 -972 0
-968 -973 0
-968 -974 0
-968 -975 0
-968 -976 0
-968 -977 0
-968 -978 0
-968 -979 0
-968 -980 0
-968 -981 0
-968 -982 0
-968 -983 0
-968 -984 0
-968 -985 0
-968 -986 0
-968 -987 0
-968 -988 0
-968 -989 0
-968 -990 0
-968 -991 0
-968 -992 0
-968 -993 0
-968 -994 0
-968 -995 0
-968 -996 0
-968 -997 0
-969 -970 0
-969 -971 0
-969 -972 0
-969 -973 0
-969 -974 0
-969 -975 0
-969 -976 0
-969 -977 0
-969 -978 0
-969 -979 0
-969 -980 0
-969 -981 0
-969 -982 0
-969 -983 0
-969 -984 0
-969 -985 0
-969 -986 0
-969 -987 0
-969 -988 0
-969 -989 0
-969 -990 0
-969 -991 0
-969 -992 0
-969 -993 0
-969 -994 0
-969 -995 0
-969 -996 0
-969 -997 0
-970 -971 0
-970 -972 0
-970 -973 0
-970 -974 0
-970 -975 0
-970 -976 0
-970 -977 0
-970 -978 0
-970 -979 0
-970 -980 0
-970 -981 0
-970 -982 0
-970 -983 0
-970 -984 0
-970 -985 0
-970 -986 0
-970 -987 0
-970 -988 0
-970 -989 0
-970 -990 0
-970 -991 0
-970 -992 0
-970 -993 0
-970 -994 0
-970 -995 0
-970 -996 0
-970 -997 0
-971 -972 0
-971 -973 0
-971 -974 0
-971 -975 0
-971 -976 0
-971 -977 0
-971 -978 0
-971 -979 0
-971 -980 0
-971 -981 0
-971 -982 0
-971 -983 0
-971 -984 0
-971 -985 0
-971 -986 0
-971 -987 0
-971 -988 0
-971 -989 0
-971 -990 0
-971 -991 0
-971 -992 0
-971 -993 0
-971 -994 0
-971 -995 0
-971 -996 0
-971 -997 0
-972 -973 0
-972 -974 0
-972 -975 0
-972 -976 0
-972 -977 0
-972 -978 0
-972 -979 0
-972 -980 0
-972 -981 0
-972 -982 0
-972 -983 0
-972 -984 0
-972 -985 0
-972 -986 0
-972 -987 0
-972 -988 0
-972 -989 0
-972 -990 0
-972 -991 0
-972 -992 0
-972 -993 0
-972 -994 0
-972 -995 0
-972 -996 0
-972 -997 0
-973 -974 0
-973 -975 0
-973 -976 0
-973 -977 0
-973 -978 0
-973 -979 0
-973 -980 0
-973 -981 0
-973 -982 0
-973 -983 0
-973 -984 0
-973 -985 0
-973 -986 0
-973 -987 0
-973 -988 0
-973 -989 0
-973 -990 0
-973 -991 0
-973 -992 0
-973 -993 0
-973 -994 0
-973 -995 0
-973 -996 0
-973 -997 0
-974 -975 0
-974 -976 0
-974 -977 0
-974 -978 0
-974 -979 0
-974 -980 0
-974 -981 0
-974 -982 0
-974 -983 0
-974 -984 0
-974 -985 0
-974 -986 0
-974 -987 0
-974 -988 0
-974 -989 0
-974 -990 0
-974 -991 0
-974 -992 0
-974 -993 0
-974 -994 0
-974 -995 0
-974 -996 0
-974 -997 0
-975 -976 0
-975 -977 0
-975 -978 0
-975 -979 0
-975 -980 0
-975 -981 0
-975 -982 0
-975 -983 0
-975 -984 0
-975 -985 0
-975 -986 0
-975 -987 0
-975 -988 0
-975 -989 0
-975 -990 0
-975 -991 0
-975 -992 0
-975 -993 0
-975 -994 0
-975 -995 0
-975 -996 0
-975 -997 0
-976 -977 0
-976 -978 0
-976 -979 0
-976 -980 0
-976 -981 0
-976 -982 0
-976 -983 0
-976 -984 0
-976 -985 0
-976 -986 0
-976 -987 0
-976 -988 0
-976 -989 0
-976 -990 0
-976 -991 0
-976 -992 0
-976 -993 0
-976 -994 0
-976 -995 0
-976 -996 0
-976 -997 0
-977 -978 0
-977 -979 0
-977 -980 0
-977 -981 0
-977 -982 0
-977 -983 0
-977 -984 0
-977 -985 0
-977 -986 0
-977 -987 0
-977 -988 0
-977 -989 0
-977 -990 0
-977 -991 0
-977 -992 0
-977 -993 0
-977 -994 0
-977 -995 0
-977 -996 0
-977 -997 0
-978 -979 0
-978 -980 0
-978 -981 0
-978 -982 0
-978 -983 0
-978 -984 0
-978 -985 0
-978 -986 0
-978 -987 0
-978 -988 0
-978 -989 0
-978 -990 0
-978 -991 0
-978 -992 0
-978 -993 0
-978 -994 0
-978 -995 0
-978 -996 0
-978 -997 0
-979 -980 0
-979 -981 0
-979 -982 0
-979 -983 0
-979 -984 0
-979 -985 0
-979 -986 0
-979 -987 0
-979 -988 0
-979 -989 0
-979 -990 0
-979 -991 0
-979 -992 0
-979 -993 0
-979 -994 0
-979 -995 0
-979 -996 0
-979 -997 0
-980 -981 0
-980 -982 0
-980 -983 0
-980 -984 0
-980 -985 0
-980 -986 0
-980 -987 0
-980 -988 0
-980 -989 0
-980 -990 0
-980 -991 0
-980 -992 0
-980 -993 0
-980 -994 0
-980 -995 0
-980 -996 0
-980 -997 0
-981 -982 0
-981 -983 0
-981 -984 0
-981 -985 0
-981 -986 0
-981 -987 0
-981 -988 0
-981 -989 0
-981 -990 0
-981 -991 0
-981 -992 0
-981 -993 0
-981 -994 0
-981 -995 0
-981 -996 0
-981 -997 0
-982 -983 0
-982 -984 0
-982 -985 0
-982 -986 0
-982 -987 0
-982 -988 0
-982 -989 0
-982 -990 0
-982 -991 0
-982 -992 0
-982 -993 0
-982 -994 0
-982 -995 0
-982 -996 0
-982 -997 0
-983 -984 0
-983 -985 0
-983 -986 0
-983 -987 0
-983 -988 0
-983 -989 0
-983 -990 0
-983 -991 0
-983 -992 0
-983 -993 0
-983 -994 0
-983 -995 0
-983 -996 0
-983 -997 0
-984 -985 0
-984 -986 0
-984 -987 0
-984 -988 0
-984 -989 0
-984 -990 0
-984 -991 0
-984 -992 0
-984 -993 0
-984 -994 0
-984 -995 0
-984 -996 0
-984 -997 0
-985 -986 0
-985 -987 0
-985 -988 0
-985 -989 0
-985 -990 0
-985 -991 0
-985 -992 0
-985 -993 0
-985 -994 0
-985 -995 0
-985 -996 0
-985 -997 0
-986 -987 0
-986 -988 0
-986 -989 0
-986 -990 0
-986 -991 0
-986 -992 0
-986 -993 0
-986 -994 0
-986 -995 0
-986 -996 0
-986 -997 0
-987 -988 0
-987 -989 0
-987 -990 0
-987 -991 0
-987 -992 0
-987 -993 0
-987 -994 0
-987 -995 0
-987 -996 0
-987 -997 0
-988 -989 0
-988 -990 0
-988 -991 0
-988 -992 0
-988 -993 0
-988 -994 0
-988 -995 0
-988 -996 0
-988 -997 0
-989 -990 0
-989 -991 0
-989 -992 0
-989 -993 0
-989 -994 0
-989 -995 0
-989 -996 0
-989 -997 0
-990 -991 0
-990 -992 0
-990 -993 0
-990 -994 0
-990 -995 0
-990 -996 0
-990 -997 0
-991 -992 0
-991 -993 0
-991 -994 0
-991 -995 0
-991 -996 0
-991 -997 0
-992 -993 0
-992 -994 0
-992 -995 0
-992 -996 0
-992 -997 0
-993 -994 0
-993 -995 0
-993 -996 0
-993 -997 0
-994 -995 0
-994 -996 0
-994 -997 0
-995 -996 0
-995 -997 0
-996 -997 0
-299 448 914 915 916 917 918 919 920 921 922 923 924 925 926 927 928 929 930 931 932 933 934 935 936 937 0
299 -448 914 915 916 917 918 919 920 921 922 923 924 925 926 927 928 929 930 931 932 933 934 935 936 937 0
-300 449 914 915 916 917 918 919 920 921 922 923 924 925 926 927 928 929 930 931 932 933 934 935 936 937 0
300 -449 914 915 916 917 918 919 920 921 922 923 924 925 926 927 928 929 930 931 932 933 934 935 936 937 0
-301 450 914 915 916 917 918 919 920 921 922 923 924 925 926 927 928 929 930 931 932 933 934 935 936 937 0
301 -450 914 915 916 917 918 919 920 921 922 923 924 925 926 927 928 929 930 931 932 933 934 935 936 937 0
-302 451 914 915 916 917 918 919 920 921 922 923 924 925 926 927 928 929 930 931 932 933 934 935 936 937 0
302 -451 914 915 916 917 918 919 920 921 922 923 924 925 926 927 928 929 930 931 932 933 934 935 936 937 0
-303 452 914 915 916 917 918 919 920 921 922 923 924 925 926 927 928 929 930 931 932 933 934 935 936 937 0
303 -452 914 915 916 917 918 919 920 921 922 923 924 925 926 927 928 929 930 931 932 933 934 935 936 937 0
-304 453 914 915 916 917 918 919 920 921 922 923 924 925 926 927 928 929 930 931 932 933 934 935 936 937 0
304 -453 914 915 916 917 918 919 920 921 922 923 924 925 926 927 928 929 930 931 932 933 934 935 936 937 0
-305 454 914 915 916 917 918 919 920 921 922 923 924 925 926 927 928 929 930 931 932 933 934 935 936 937 0
305 -454 914 915 916 917 918 919 920 921 922 923 924 925 926 927 928 929 930 931 932 933 934 935 936 937 0
-306 455 914 915 916 917 918 919 920 921 922 923 924 925 926 927 928 929 930 931 932 933 934 935 936 937 0
306 -455 914 915 916 917 918 919 920 921 922 923 924 925 926 927 928 929 930 931 932 933 934 935 936 937 0
-307 456 914 915 916 917 918 919 920 921 922 923 924 925 926 927 928 929 930 931 932 933 934 935 936 937 0
307 -456 914 915 916 917 918 919 920 921 922 923 924 925 926 927 928 929 930 931 932 933 934 935 936 937 0
-308 457 914 915 916 917 918 919 920 921 922 923 924 925 926 927 928 929 930 931 932 933 934 935 936 937 0
308 -457 914 915 916 917 918 919 920 921 922 923 924 925 926 927 928 929 930 931 932 933 934 935 936 937 0
-358 507 938 939 940 941 942 943 944 945 946 947 948 949 950 951 952 953 954 955 956 957 958 959 960 961 0
358 -507 938 939 940 941 942 943 944 945 946 947 948 949 950 951 952 953 954 955 956 957 958 959 960 961 0
-359 508 938 939 940 941 942 943 944 945 946 947 948 949 950 951 952 953 954 955 956 957 958 959 960 961 0
359 -508 938 939 940 941 942 943 944 945 946 947 948 949 950 951 952 953 954 955 956 957 958 959 960 961 0
-360 509 938 939 940 941 942 943 944 945 946 947 948 949 950 951 952 953 954 955 956 957 958 959 960 961 0
360 -509 938 939 940 941 942 943 944 945 946 947 948 949 950 951 952 953 954 955 956 957 958 959 960 961 0
-361 510 938 939 940 941 942 943 944 945 946 947 948 949 950 951 952 953 954 955 956 957 958 959 960 961 0
361 -510 938 939 940 941 942 943 944 945 946 947 948 949 950 951 952 953 954 955 956 957 958 959 960 961 0
-362 511 938 939 940 941 942 943 944 945 946 947 948 949 950 951 952 953 954 955 956 957 958 959 960 961 0
362 -511 938 939 940 941 942 943 944 945 946 947 948 949 950 951 952 953 954 955 956 957 958 959 960 961 0
-363 512 938 939 940 941 942 943 944 945 946 947 948 949 950 951 952 953 954 955 956 957 958 959 960 961 0
363 -512 938 939 940 941 942 943 944 945 946 947 948 949 950 951 952 953 954 955 956 957 958 959 960 961 0
-364 513 938 939 940 941 942 943 944 945 946 947 948 949 950 951 952 953 954 955 956 957 958 959 960 961 0
364 -513 938 939 940 941 942 943 944 945 946 947 948 949 950 951 952 953 954 955 956 957 958 959 960 961 0
-365 514 938 939 940 941 942 943 944 945 946 947 948 949 950 951 952 953 954 955 956 957 958 959 960 961 0
365 -514 938 939 940 941 942 943 944 945 946 947 948 949 950 951 952 953 954 955 956 957 958 959 960 961 0
-366 515 938 939 940 941 942 943 944 945 946 947 948 949 950 951 952 953 954 955 956 957 958 959 960 961 0
366 -515 938 939 940 941 942 943 944 945 946 947 948 949 950 951 952 953 954 955 956 957 958 959 960 961 0
-367 516 938 939 940 941 942 943 944 945 946 947 948 949 950 951 952 953 954 955 956 957 958 959 960 961 0
367 -516 938 939 940 941 942 943 944 945 946 947 948 949 950 951 952 953 954 955 956 957 958 959 960 961 0
-393 542 962 963 964 965 966 967 968 969 970 971 972 973 974 975 976 977 978 979 980 981 0
393 -542 962 963 964 965 966 967 968 969 970 971 972 973 974 975 976 977 978 979 980 981 0
-394 543 962 963 964 965 966 967 968 969 970 971 972 973 974 975 976 977 978 979 980 981 0
394 -543 962 963 964 965 966 967 968 969 970 971 972 973 974 975 976 977 978 979 980 981 0
-395 544 962 963 964 965 966 967 968 969 970 971 972 973 974 975 976 977 978 979 980 981 0
395 -544 962 963 964 965 966 967 968 969 970 971 972 973 974 975 976 977 978 979 980 981 0
-396 545 962 963 964 965 966 967 968 969 970 971 972 973 974 975 976 977 978 979 980 981 0
396 -545 962 963 964 965 966 967 968 969 970 971 972 973 974 975 976 977 978 979 980 981 0
-397 546 962 963 964 965 966 967 968 969 970 971 972 973 974 975 976 977 978 979 980 981 0
397 -546 962 963 964 965 966 967 968 969 970 971 972 973 974 975 976 977 978 979 980 981 0
-398 547 962 963 964 965 966 967 968 969 970 971 972 973 974 975 976 977 978 979 980 981 0
398 -547 962 963 964 965 966 967 968 969 970 971 972 973 974 975 976 977 978 979 980 981 0
-399 548 962 963 964 965 966 967 968 969 970 971 972 973 974 975 976 977 978 979 980 981 0
399 -548 962 963 964 965 966 967 968 969 970 971 972 973 974 975 976 977 978 979 980 981 0
-400 549 962 963 964 965 966 967 968 969 970 971 972 973 974 975 976 977 978 979 980 981 0
400 -549 962 963 964 965 966 967 968 969 970 971 972 973 974 975 976 977 978 979 980 981 0
-401 550 962 963 964 965 966 967 968 969 970 971 972 973 974 975 976 977 978 979 980 981 0
401 -550 962 963 964 965 966 967 968 969 970 971 972 973 974 975 976 977 978 979 980 981 0
-423 572 982 983 984 985 986 987 988 989 990 991 992 993 994 995 996 997 0
423 -572 982 983 984 985 986 987 988 989 990 991 992 993 994 995 996 997 0
-424 573 982 983 984 985 986 987 988 989 990 991 992 993 994 995 996 997 0
424 -573 982 983 984 985 986 987 988 989 990 991 992 993 994 995 996 997 0
-425 574 982 983 984 985 986 987 988 989 990 991 992 993 994 995 996 997 0
425 -574 982 983 984 985 986 987 988 989 990 991 992 993 994 995 996 997 0
-426 575 982 983 984 985 986 987 988 989 990 991 992 993 994 995 996 997 0
426 -575 982 983 984 985 986 987 988 989 990 991 992 993 994 995 996 997 0
-427 576 982 983 984 985 986 987 988 989 990 991 992 993 994 995 996 997 0
427 -576 982 983 984 985 986 987 988 989 990 991 992 993 994 995 996 997 0
-428 577 982 983 984 985 986 987 988 989 990 991 992 993 994 995 996 997 0
428 -577 982 983 984 985 986 987 988 989 990 991 992 993 994 995 996 997 0
-429 578 982 983 984 985 986 987 988 989 990 991 992 993 994 995 996 997 0
429 -578 982 983 984 985 986 987 988 989 990 991 992 993 994 995 996 997 0
-430 579 982 983 984 985 986 987 988 989 990 991 992 993 994 995 996 997 0
430 -579 982 983 984 985 986 987 988 989 990 991 992 993 994 995 996 997 0
-998 462 0
-998 597 0
-998 611 0
-998 603 0
-998 -448 -454 0
-999 462 0
-999 598 0
-999 611 0
-999 603 0
-999 -449 -454 0
-1000 462 0
-1000 599 0
-1000 611 0
-1000 603 0
-1000 -450 -454 0
-1001 462 0
-1001 600 0
-1001 611 0
-1001 603 0
-1001 -451 -454 0
-1002 462 0
-1002 601 0
-1002 611 0
-1002 603 0
-1002 -452 -454 0
-1003 462 0
-1003 602 0
-1003 611 0
-1003 603 0
-1003 -453 -454 0
-1004 462 0
-1004 597 0
-1004 611 0
-1004 507 0
-1004 -516 0
-1004 -667 0
-1004 -513 604 0
-1004 -513 -448 -455 0
-1004 -514 605 0
-1004 -514 -448 -456 0
-1004 -515 606 0
-1004 -515 -448 -457 0
-1005 462 0
-1005 598 0
-1005 611 0
-1005 508 0
-1005 -516 0
-1005 -667 0
-1005 -513 604 0
-1005 -513 -449 -455 0
-1005 -514 605 0
-1005 -514 -449 -456 0
-1005 -515 606 0
-1005 -515 -449 -457 0
-1006 462 0
-1006 599 0
-1006 611 0
-1006 509 0
-1006 -516 0
-1006 -667 0
-1006 -513 604 0
-1006 -513 -450 -455 0
-1006 -514 605 0
-1006 -514 -450 -456 0
-1006 -515 606 0
-1006 -515 -450 -457 0
-1007 462 0
-1007 600 0
-1007 611 0
-1007 510 0
-1007 -516 0
-1007 -667 0
-1007 -513 604 0
-1007 -513 -451 -455 0
-1007 -514 605 0
-1007 -514 -451 -456 0
-1007 -515 606 0
-1007 -515 -451 -457 0
-1008 462 0
-1008 601 0
-1008 611 0
-1008 511 0
-1008 -516 0
-1008 -667 0
-1008 -513 604 0
-1008 -513 -452 -455 0
-1008 -514 605 0
-1008 -514 -452 -456 0
-1008 -515 606 0
-1008 -515 -452 -457 0
-1009 462 0
-1009 602 0
-1009 611 0
-1009 512 0
-1009 -516 0
-1009 -667 0
-1009 -513 604 0
-1009 -513 -453 -455 0
-1009 -514 605 0
-1009 -514 -453 -456 0
-1009 -515 606 0
-1009 -515 -453 -457 0
-1010 462 0
-1010 597 0
-1010 611 0
-1010 542 0
-1010 -550 0
-1010 -701 0
-1010 -547 604 0
-1010 -547 -448 -455 0
-1010 -548 605 0
-1010 -548 -448 -456 0
-1010 -549 606 0
-1010 -549 -448 -457 0
-1011 462 0
-1011 598 0
-1011 611 0
-1011 542 543 0
-1011 -550 0
-1011 -701 0
-1011 -547 604 0
-1011 -547 -449 -455 0
-1011 -548 605 0
-1011 -548 -449 -456 0
-1011 -549 606 0
-1011 -549 -449 -457 0
-1012 462 0
-1012 599 0
-1012 611 0
-1012 543 544 0
-1012 -550 0
-1012 -701 0
-1012 -547 604 0
-1012 -547 -450 -455 0
-1012 -548 605 0
-1012 -548 -450 -456 0
-1012 -549 606 0
-1012 -549 -450 -457 0
-1013 462 0
-1013 600 0
-1013 611 0
-1013 544 545 0
-1013 -550 0
-1013 -701 0
-1013 -547 604 0
-1013 -547 -451 -455 0
-1013 -548 605 0
-1013 -548 -451 -456 0
-1013 -549 606 0
-1013 -549 -451 -457 0
-1014 462 0
-1014 601 0
-1014 611 0
-1014 545 546 0
-1014 -550 0
-1014 -701 0
-1014 -547 604 0
-1014 -547 -452 -455 0
-1014 -548 605 0
-1014 -548 -452 -456 0
-1014 -549 606 0
-1014 -549 -452 -457 0
-1015 462 0
-1015 602 0
-1015 611 0
-1015 546 0
-1015 -550 0
-1015 -701 0
-1015 -547 604 0
-1015 -547 -453 -455 0
-1015 -548 605 0
-1015 -548 -453 -456 0
-1015 -549 606 0
-1015 -549 -453 -457 0
-1016 462 0
-1016 597 0
-1016 611 0
-1016 572 0
-1016 -579 0
-1016 -730 0
-1016 -576 604 0
-1016 -576 -448 -455 0
-1016 -577 605 0
-1016 -577 -448 -456 0
-1016 -578 606 0
-1016 -578 -448 -457 0
-1017 462 0
-1017 598 0
-1017 611 0
-1017 572 573 0
-1017 -579 0
-1017 -730 0
-1017 -576 604 0
-1017 -576 -449 -455 0
-1017 -577 605 0
-1017 -577 -449 -456 0
-1017 -578 606 0
-1017 -578 -449 -457 0
-1018 462 0
-1018 599 0
-1018 611 0
-1018 572 573 574 0
-1018 -579 0
-1018 -730 0
-1018 -576 604 0
-1018 -576 -450 -455 0
-1018 -577 605 0
-1018 -577 -450 -456 0
-1018 -578 606 0
-1018 -578 -450 -457 0
-1019 462 0
-1019 600 0
-1019 611 0
-1019 573 574 575 0
-1019 -579 0
-1019 -730 0
-1019 -576 604 0
-1019 -576 -451 -455 0
-1019 -577 605 0
-1019 -577 -451 -456 0
-1019 -578 606 0
-1019 -578 -451 -457 0
-1020 462 0
-1020 601 0
-1020 611 0
-1020 574 575 0
-1020 -579 0
-1020 -730 0
-1020 -576 604 0
-1020 -576 -452 -455 0
-1020 -577 605 0
-1020 -577 -452 -456 0
-1020 -578 606 0
-1020 -578 -452 -457 0
-1021 462 0
-1021 602 0
-1021 611 0
-1021 575 0
-1021 -579 0
-1021 -730 0
-1021 -576 604 0
-1021 -576 -453 -455 0
-1021 -577 605 0
-1021 -577 -453 -456 0
-1021 -578 606 0
-1021 -578 -453 -457 0
-1022 518 0
-1022 656 0
-1022 667 0
-1022 662 0
-1022 -507 -513 0
-1023 518 0
-1023 657 0
-1023 667 0
-1023 662 0
-1023 -508 -513 0
-1024 518 0
-1024 658 0
-1024 667 0
-1024 662 0
-1024 -509 -513 0
-1025 518 0
-1025 659 0
-1025 667 0
-1025 662 0
-1025 -510 -513 0
-1026 518 0
-1026 660 0
-1026 667 0
-1026 662 0
-1026 -511 -513 0
-1027 518 0
-1027 661 0
-1027 667 0
-1027 662 0
-1027 -512 -513 0
-1028 518 0
-1028 656 0
-1028 667 0
-1028 448 0
-1028 -457 0
-1028 -611 0
-1028 -454 663 0
-1028 -454 -507 -514 0
-1028 -455 664 0
-1028 -455 -507 -515 0
-1028 -456 665 0
-1028 -456 -507 -516 0
-1029 518 0
-1029 657 0
-1029 667 0
-1029 449 0
-1029 -457 0
-1029 -611 0
-1029 -454 663 0
-1029 -454 -508 -514 0
-1029 -455 664 0
-1029 -455 -508 -515 0
-1029 -456 665 0
-1029 -456 -508 -516 0
-1030 518 0
-1030 658 0
-1030 667 0
-1030 450 0
-1030 -457 0
-1030 -611 0
-1030 -454 663 0
-1030 -454 -509 -514 0
-1030 -455 664 0
-1030 -455 -509 -515 0
-1030 -456 665 0
-1030 -456 -509 -516 0
-1031 518 0
-1031 659 0
-1031 667 0
-1031 451 0
-1031 -457 0
-1031 -611 0
-1031 -454 663 0
-1031 -454 -510 -514 0
-1031 -455 664 0
-1031 -455 -510 -515 0
-1031 -456 665 0
-1031 -456 -510 -516 0
-1032 518 0
-1032 660 0
-1032 667 0
-1032 452 0
-1032 -457 0
-1032 -611 0
-1032 -454 663 0
-1032 -454 -511 -514 0
-1032 -455 664 0
-1032 -455 -511 -515 0
-1032 -456 665 0
-1032 -456 -511 -516 0
-1033 518 0
-1033 661 0
-1033 667 0
-1033 453 0
-1033 -457 0
-1033 -611 0
-1033 -454 663 0
-1033 -454 -512 -514 0
-1033 -455 664 0
-1033 -455 -512 -515 0
-1033 -456 665 0
-1033 -456 -512 -516 0
-1034 518 0
-1034 656 0
-1034 667 0
-1034 542 0
-1034 -550 0
-1034 -701 0
-1034 -547 663 0
-1034 -547 -507 -514 0
-1034 -548 664 0
-1034 -548 -507 -515 0
-1034 -549 665 0
-1034 -549 -507 -516 0
-1035 518 0
-1035 657 0
-1035 667 0
-1035 542 543 0
-1035 -550 0
-1035 -701 0
-1035 -547 663 0
-1035 -547 -508 -514 0
-1035 -548 664 0
-1035 -548 -508 -515 0
-1035 -549 665 0
-1035 -549 -508 -516 0
-1036 518 0
-1036 658 0
-1036 667 0
-1036 543 544 0
-1036 -550 0
-1036 -701 0
-1036 -547 663 0
-1036 -547 -509 -514 0
-1036 -548 664 0
-1036 -548 -509 -515 0
-1036 -549 665 0
-1036 -549 -509 -516 0
-1037 518 0
-1037 659 0
-1037 667 0
-1037 544 545 0
-1037 -550 0
-1037 -701 0
-1037 -547 663 0
-1037 -547 -510 -514 0
-1037 -548 664 0
-1037 -548 -510 -515 0
-1037 -549 665 0
-1037 -549 -510 -516 0
-1038 518 0
-1038 660 0
-1038 667 0
-1038 545 546 0
-1038 -550 0
-1038 -701 0
-1038 -547 663 0
-1038 -547 -511 -514 0
-1038 -548 664 0
-1038 -548 -511 -515 0
-1038 -549 665 0
-1038 -549 -511 -516 0
-1039 518 0
-1039 661 0
-1039 667 0
-1039 546 0
-1039 -550 0
-1039 -701 0
-1039 -547 663 0
-1039 -547 -512 -514 0
-1039 -548 664 0
-1039 -548 -512 -515 0
-1039 -549 665 0
-1039 -549 -512 -516 0
-1040 518 0
-1040 656 0
-1040 667 0
-1040 572 0
-1040 -579 0
-1040 -730 0
-1040 -576 663 0
-1040 -576 -507 -514 0
-1040 -577 664 0
-1040 -577 -507 -515 0
-1040 -578 665 0
-1040 -578 -507 -516 0
-1041 518 0
-1041 657 0
-1041 667 0
-1041 572 573 0
-1041 -579 0
-1041 -730 0
-1041 -576 663 0
-1041 -576 -508 -514 0
-1041 -577 664 0
-1041 -577 -508 -515 0
-1041 -578 665 0
-1041 -578 -508 -516 0
-1042 518 0
-1042 658 0
-1042 667 0
-1042 572 573 574 0
-1042 -579 0
-1042 -730 0
-1042 -576 663 0
-1042 -576 -509 -514 0
-1042 -577 664 0
-1042 -577 -509 -515 0
-1042 -578 665 0
-1042 -578 -509 -516 0
-1043 518 0
-1043 659 0
-1043 667 0
-1043 573 574 575 0
-1043 -579 0
-1043 -730 0
-1043 -576 663 0
-1043 -576 -510 -514 0
-1043 -577 664 0
-1043 -577 -510 -515 0
-1043 -578 665 0
-1043 -578 -510 -516 0
-1044 518 0
-1044 660 0
-1044 667 0
-1044 574 575 0
-1044 -579 0
-1044 -730 0
-1044 -576 663 0
-1044 -576 -511 -514 0
-1044 -577 664 0
-1044 -577 -511 -515 0
-1044 -578 665 0
-1044 -578 -511 -516 0
-1045 518 0
-1045 661 0
-1045 667 0
-1045 575 0
-1045 -579 0
-1045 -730 0
-1045 -576 663 0
-1045 -576 -512 -514 0
-1045 -577 664 0
-1045 -577 -512 -515 0
-1045 -578 665 0
-1045 -578 -512 -516 0
-1046 552 0
-1046 691 0
-1046 701 0
-1046 696 0
-1046 -542 -547 0
-1047 552 0
-1047 692 0
-1047 701 0
-1047 696 0
-1047 -543 -547 0
-1048 552 0
-1048 693 0
-1048 701 0
-1048 696 0
-1048 -544 -547 0
-1049 552 0
-1049 694 0
-1049 701 0
-1049 696 0
-1049 -545 -547 0
-1050 552 0
-1050 695 0
-1050 701 0
-1050 696 0
-1050 -546 -547 0
-1051 552 0
-1051 691 0
-1051 701 0
-1051 448 449 0
-1051 -457 0
-1051 -611 0
-1051 -454 697 0
-1051 -454 -542 -548 0
-1051 -455 698 0
-1051 -455 -542 -549 0
-1051 -456 699 0
-1051 -456 -542 -550 0
-1052 552 0
-1052 692 0
-1052 701 0
-1052 449 450 0
-1052 -457 0
-1052 -611 0
-1052 -454 697 0
-1052 -454 -543 -548 0
-1052 -455 698 0
-1052 -455 -543 -549 0
-1052 -456 699 0
-1052 -456 -543 -550 0
-1053 552 0
-1053 693 0
-1053 701 0
-1053 450 451 0
-1053 -457 0
-1053 -611 0
-1053 -454 697 0
-1053 -454 -544 -548 0
-1053 -455 698 0
-1053 -455 -544 -549 0
-1053 -456 699 0
-1053 -456 -544 -550 0
-1054 552 0
-1054 694 0
-1054 701 0
-1054 451 452 0
-1054 -457 0
-1054 -611 0
-1054 -454 697 0
-1054 -454 -545 -548 0
-1054 -455 698 0
-1054 -455 -545 -549 0
-1054 -456 699 0
-1054 -456 -545 -550 0
-1055 552 0
-1055 695 0
-1055 701 0
-1055 452 453 0
-1055 -457 0
-1055 -611 0
-1055 -454 697 0
-1055 -454 -546 -548 0
-1055 -455 698 0
-1055 -455 -546 -549 0
-1055 -456 699 0
-1055 -456 -546 -550 0
-1056 552 0
-1056 691 0
-1056 701 0
-1056 507 508 0
-1056 -516 0
-1056 -667 0
-1056 -513 697 0
-1056 -513 -542 -548 0
-1056 -514 698 0
-1056 -514 -542 -549 0
-1056 -515 699 0
-1056 -515 -542 -550 0
-1057 552 0
-1057 692 0
-1057 701 0
-1057 508 509 0
-1057 -516 0
-1057 -667 0
-1057 -513 697 0
-1057 -513 -543 -548 0
-1057 -514 698 0
-1057 -514 -543 -549 0
-1057 -515 699 0
-1057 -515 -543 -550 0
-1058 552 0
-1058 693 0
-1058 701 0
-1058 509 510 0
-1058 -516 0
-1058 -667 0
-1058 -513 697 0
-1058 -513 -544 -548 0
-1058 -514 698 0
-1058 -514 -544 -549 0
-1058 -515 699 0
-1058 -515 -544 -550 0
-1059 552 0
-1059 694 0
-1059 701 0
-1059 510 511 0
-1059 -516 0
-1059 -667 0
-1059 -513 697 0
-1059 -513 -545 -548 0
-1059 -514 698 0
-1059 -514 -545 -549 0
-1059 -515 699 0
-1059 -515 -545 -550 0
-1060 552 0
-1060 695 0
-1060 701 0
-1060 511 512 0
-1060 -516 0
-1060 -667 0
-1060 -513 697 0
-1060 -513 -546 -548 0
-1060 -514 698 0
-1060 -514 -546 -549 0
-1060 -515 699 0
-1060 -515 -546 -550 0
-1061 552 0
-1061 691 0
-1061 701 0
-1061 572 573 0
-1061 -579 0
-1061 -730 0
-1061 -576 697 0
-1061 -576 -542 -548 0
-1061 -577 698 0
-1061 -577 -542 -549 0
-1061 -578 699 0
-1061 -578 -542 -550 0
-1062 552 0
-1062 692 0
-1062 701 0
-1062 572 573 574 0
-1062 -579 0
-1062 -730 0
-1062 -576 697 0
-1062 -576 -543 -548 0
-1062 -577 698 0
-1062 -577 -543 -549 0
-1062 -578 699 0
-1062 -578 -543 -550 0
-1063 552 0
-1063 693 0
-1063 701 0
-1063 572 573 574 575 0
-1063 -579 0
-1063 -730 0
-1063 -576 697 0
-1063 -576 -544 -548 0
-1063 -577 698 0
-1063 -577 -544 -549 0
-1063 -578 699 0
-1063 -578 -544 -550 0
-1064 552 0
-1064 694 0
-1064 701 0
-1064 573 574 575 0
-1064 -579 0
-1064 -730 0
-1064 -576 697 0
-1064 -576 -545 -548 0
-1064 -577 698 0
-1064 -577 -545 -549 0
-1064 -578 699 0
-1064 -578 -545 -550 0
-1065 552 0
-1065 695 0
-1065 701 0
-1065 574 575 0
-1065 -579 0
-1065 -730 0
-1065 -576 697 0
-1065 -576 -546 -548 0
-1065 -577 698 0
-1065 -577 -546 -549 0
-1065 -578 699 0
-1065 -578 -546 -550 0
-1066 581 0
-1066 721 0
-1066 730 0
-1066 725 0
-1066 -572 -576 0
-1067 581 0
-1067 722 0
-1067 730 0
-1067 725 0
-1067 -573 -576 0
-1068 581 0
-1068 723 0
-1068 730 0
-1068 725 0
-1068 -574 -576 0
-1069 581 0
-1069 724 0
-1069 730 0
-1069 725 0
-1069 -575 -576 0
-1070 581 0
-1070 721 0
-1070 730 0
-1070 448 449 450 0
-1070 -457 0
-1070 -611 0
-1070 -454 726 0
-1070 -454 -572 -577 0
-1070 -455 727 0
-1070 -455 -572 -578 0
-1070 -456 728 0
-1070 -456 -572 -579 0
-1071 581 0
-1071 722 0
-1071 730 0
-1071 449 450 451 0
-1071 -457 0
-1071 -611 0
-1071 -454 726 0
-1071 -454 -573 -577 0
-1071 -455 727 0
-1071 -455 -573 -578 0
-1071 -456 728 0
-1071 -456 -573 -579 0
-1072 581 0
-1072 723 0
-1072 730 0
-1072 450 451 452 0
-1072 -457 0
-1072 -611 0
-1072 -454 726 0
-1072 -454 -574 -577 0
-1072 -455 727 0
-1072 -455 -574 -578 0
-1072 -456 728 0
-1072 -456 -574 -579 0
-1073 581 0
-1073 724 0
-1073 730 0
-1073 451 452 453 0
-1073 -457 0
-1073 -611 0
-1073 -454 726 0
-1073 -454 -575 -577 0
-1073 -455 727 0
-1073 -455 -575 -578 0
-1073 -456 728 0
-1073 -456 -575 -579 0
-1074 581 0
-1074 721 0
-1074 730 0
-1074 507 508 509 0
-1074 -516 0
-1074 -667 0
-1074 -513 726 0
-1074 -513 -572 -577 0
-1074 -514 727 0
-1074 -514 -572 -578 0
-1074 -515 728 0
-1074 -515 -572 -579 0
-1075 581 0
-1075 722 0
-1075 730 0
-1075 508 509 510 0
-1075 -516 0
-1075 -667 0
-1075 -513 726 0
-1075 -513 -573 -577 0
-1075 -514 727 0
-1075 -514 -573 -578 0
-1075 -515 728 0
-1075 -515 -573 -579 0
-1076 581 0
-1076 723 0
-1076 730 0
-1076 509 510 511 0
-1076 -516 0
-1076 -667 0
-1076 -513 726 0
-1076 -513 -574 -577 0
-1076 -514 727 0
-1076 -514 -574 -578 0
-1076 -515 728 0
-1076 -515 -574 -579 0
-1077 581 0
-1077 724 0
-1077 730 0
-1077 510 511 512 0
-1077 -516 0
-1077 -667 0
-1077 -513 726 0
-1077 -513 -575 -577 0
-1077 -514 727 0
-1077 -514 -575 -578 0
-1077 -515 728 0
-1077 -515 -575 -579 0
-1078 581 0
-1078 721 0
-1078 730 0
-1078 542 543 544 0
-1078 -550 0
-1078 -701 0
-1078 -547 726 0
-1078 -547 -572 -577 0
-1078 -548 727 0
-1078 -548 -572 -578 0
-1078 -549 728 0
-1078 -549 -572 -579 0
-1079 581 0
-1079 722 0
-1079 730 0
-1079 542 543 544 545 0
-1079 -550 0
-1079 -701 0
-1079 -547 726 0
-1079 -547 -573 -577 0
-1079 -548 727 0
-1079 -548 -573 -578 0
-1079 -549 728 0
-1079 -549 -573 -579 0
-1080 581 0
-1080 723 0
-1080 730 0
-1080 543 544 545 546 0
-1080 -550 0
-1080 -701 0
-1080 -547 726 0
-1080 -547 -574 -577 0
-1080 -548 727 0
-1080 -548 -574 -578 0
-1080 -549 728 0
-1080 -549 -574 -579 0
-1081 581 0
-1081 724 0
-1081 730 0
-1081 544 545 546 0
-1081 -550 0
-1081 -701 0
-1081 -547 726 0
-1081 -547 -575 -577 0
-1081 -548 727 0
-1081 -548 -575 -578 0
-1081 -549 728 0
-1081 -549 -575 -579 0
998 999 1000 1001 1002 1003 1004 1005 1006 1007 1008 1009 1010 1011 1012 1013 1014 1015 1016 1017 1018 1019 1020 1021 1022 1023 1024 1025 1026 1027 1028 1029 1030 1031 1032 1033 1034 1035 1036 1037 1038 1039 1040 1041 1042 1043 1044 1045 1046 1047 1048 1049 1050 1051 1052 1053 1054 1055 1056 1057 1058 1059 1060 1061 1062 1063 1064 1065 1066 1067 1068 1069 1070 1071 1072 1073 1074 1075 1076 1077 1078 1079 1080 1081 0
-998 -999 0
-998 -1000 0
-998 -1001 0
-998 -1002 0
-998 -1003 0
-998 -1004 0
-998 -1005 0
-998 -1006 0
-998 -1007 0
-998 -1008 0
-998 -1009 0
-998 -1010 0
-998 -1011 0
-998 -1012 0
-998 -1013 0
-998 -1014 0
-998 -1015 0
-998 -1016 0
-998 -1017 0
-998 -1018 0
-998 -1019 0
-998 -1020 0
-998 -1021 0
-998 -1022 0
-998 -1023 0
-998 -1024 0
-998 -1025 0
-998 -1026 0
-998 -1027 0
-998 -1028 0
-998 -1029 0
-998 -1030 0
-998 -1031 0
-998 -1032 0
-998 -1033 0
-998 -1034 0
-998 -1035 0
-998 -1036 0
-998 -1037 0
-998 -1038 0
-998 -1039 0
-998 -1040 0
-998 -1041 0
-998 -1042 0
-998 -1043 0
-998 -1044 0
-998 -1045 0
-998 -1046 0
-998 -1047 0
-998 -1048 0
-998 -1049 0
-998 -1050 0
-998 -1051 0
-998 -1052 0
-998 -1053 0
-998 -1054 0
-998 -1055 0
-998 -1056 0
-998 -1057 0
-998 -1058 0
-998 -1059 0
-998 -1060 0
-998 -1061 0
-998 -1062 0
-998 -1063 0
-998 -1064 0
-998 -1065 0
-998 -1066 0
-998 -1067 0
-998 -1068 0
-998 -1069 0
-998 -1070 0
-998 -1071 0
-998 -1072 0
-998 -1073 0
-998 -1074 0
-998 -1075 0
-998 -1076 0
-998 -1077 0
-998 -1078 0
-998 -1079 0
-998 -1080 0
-998 -1081 0
-999 -1000 0
-999 -1001 0
-999 -1002 0
-999 -1003 0
-999 -1004 0
-999 -1005 0
-999 -1006 0
-999 -1007 0
-999 -1008 0
-999 -1009 0
-999 -1010 0
-999 -1011 0
-999 -1012 0
-999 -1013 0
-999 -1014 0
-999 -1015 0
-999 -1016 0
-999 -1017 0
-999 -1018 0
-999 -1019 0
-999 -1020 0
-999 -1021 0
-999 -1022 0
-999 -1023 0
-999 -1024 0
-999 -1025 0
-999 -1026 0
-999 -1027 0
-999 -1028 0
-999 -1029 0
-999 -1030 0
-999 -1031 0
-999 -1032 0
-999 -1033 0
-999 -1034 0
-999 -1035 0
-999 -1036 0
-999 -1037 0
-999 -1038 0
-999 -1039 0
-999 -1040 0
-999 -1041 0
-999 -1042 0
-999 -1043 0
-999 -1044 0
-999 -1045 0
-999 -1046 0
-999 -1047 0
-999 -1048 0
-999 -1049 0
-999 -1050 0
-999 -1051 0
-999 -1052 0
-999 -1053 0
-999 -1054 0
-999 -1055 0
-999 -1056 0
-999 -1057 0
-999 -1058 0
-999 -1059 0
-999 -1060 0
-999 -1061 0
-999 -1062 0
-999 -1063 0
-999 -1064 0
-999 -1065 0
-999 -1066 0
-999 -1067 0
-999 -1068 0
-999 -1069 0
-999 -1070 0
-999 -1071 0
-999 -1072 0
-999 -1073 0
-999 -1074 0
-999 -1075 0
-999 -1076 0
-999 -1077 0
-999 -1078 0
-999 -1079 0
-999 -1080 0
-999 -1081 0
-1000 -1001 0
-1000 -1002 0
-1000 -1003 0
-1000 -1004 0
-1000 -1005 0
-1000 -1006 0
-1000 -1007 0
-1000 -1008 0
-1000 -1009 0
-1000 -1010 0
-1000 -1011 0
-1000 -1012 0
-1000 -1013 0
-1000 -1014 0
-1000 -1015 0
-1000 -1016 0
-1000 -1017 0
-1000 -1018 0
-1000 -1019 0
-1000 -1020 0
-1000 -1021 0
-1000 -1022 0
-1000 -1023 0
-1000 -1024 0
-1000 -1025 0
-1000 -1026 0
-1000 -1027 0
-1000 -1028 0
-1000 -1029 0
-1000 -1030 0
-1000 -1031 0
-1000 -1032 0
-1000 -1033 0
-1000 -1034 0
-1000 -1035 0
-1000 -1036 0
-1000 -1037 0
-1000 -1038 0
-1000 -1039 0
-1000 -1040 0
-1000 -1041 0
-1000 -1042 0
-1000 -1043 0
-1000 -1044 0
-1000 -1045 0
-1000 -1046 0
-1000 -1047 0
-1000 -1048 0
-1000 -1049 0
-1000 -1050 0
-1000 -1051 0
-1000 -1052 0
-1000 -1053 0
-1000 -1054 0
-1000 -1055 0
-1000 -1056 0
-1000 -1057 0
-1000 -1058 0
-1000 -1059 0
-1000 -1060 0
-1000 -1061 0
-1000 -1062 0
-1000 -1063 0
-1000 -1064 0
-1000 -1065 0
-1000 -1066 0
-1000 -1067 0
-1000 -1068 0
-1000 -1069 0
-1000 -1070 0
-1000 -1071 0
-1000 -1072 0
-1000 -1073 0
-1000 -1074 0
-1000 -1075 0
-1000 -1076 0
-1000 -1077 0
-1000 -1078 0
-1000 -1079 0
-1000 -1080 0
-1000 -1081 0
-1001 -1002 0
-1001 -1003 0
-1001 -1004 0
-1001 -1005 0
-1001 -1006 0
-1001 -1007 0
-1001 -1008 0
-1001 -1009 0
-1001 -1010 0
-1001 -1011 0
-1001 -1012 0
-1001 -1013 0
-1001 -1014 0
-1001 -1015 0
-1001 -1016 0
-1001 -1017 0
-1001 -1018 0
-1001 -1019 0
-1001 -1020 0
-1001 -1021 0
-1001 -1022 0
-1001 -1023 0
-1001 -1024 0
-1001 -1025 0
-1001 -1026 0
-1001 -1027 0
-1001 -1028 0
-1001 -1029 0
-1001 -1030 0
-1001 -1031 0
-1001 -1032 0
-1001 -1033 0
-1001 -1034 0
-1001 -1035 0
-1001 -1036 0
-1001 -1037 0
-1001 -1038 0
-1001 -1039 0
-1001 -1040 0
-1001 -1041 0
-1001 -1042 0
-1001 -1043 0
-1001 -1044 0
-1001 -1045 0
-1001 -1046 0
-1001 -1047 0
-1001 -1048 0
-1001 -1049 0
-1001 -1050 0
-1001 -1051 0
-1001 -1052 0
-1001 -1053 0
-1001 -1054 0
-1001 -1055 0
-1001 -1056 0
-1001 -1057 0
-1001 -1058 0
-1001 -1059 0
-1001 -1060 0
-1001 -1061 0
-1001 -1062 0
-1001 -1063 0
-1001 -1064 0
-1001 -1065 0
-1001 -1066 0
-1001 -1067 0
-1001 -1068 0
-1001 -1069 0
-1001 -1070 0
-1001 -1071 0
-1001 -1072 0
-1001 -1073 0
-1001 -1074 0
-1001 -1075 0
-1001 -1076 0
-1001 -1077 0
-1001 -1078 0
-1001 -1079 0
-1001 -1080 0
-1001 -1081 0
-1002 -1003 0
-1002 -1004 0
-1002 -1005 0
-1002 -1006 0
-1002 -1007 0
-1002 -1008 0
-1002 -1009 0
-1002 -1010 0
-1002 -1011 0
-1002 -1012 0
-1002 -1013 0
-1002 -1014 0
-1002 -1015 0
-1002 -1016 0
-1002 -1017 0
-1002 -1018 0
-1002 -1019 0
-1002 -1020 0
-1002 -1021 0
-1002 -1022 0
-1002 -1023 0
-1002 -1024 0
-1002 -1025 0
-1002 -1026 0
-1002 -1027 0
-1002 -1028 0
-1002 -1029 0
-1002 -1030 0
-1002 -1031 0
-1002 -1032 0
-1002 -1033 0
-1002 -1034 0
-1002 -1035 0
-1002 -1036 0
-1002 -1037 0
-1002 -1038 0
-1002 -1039 0
-1002 -1040 0
-1002 -1041 0
-1002 -1042 0
-1002 -1043 0
-1002 -1044 0
-1002 -1045 0
-1002 -1046 0
-1002 -1047 0
-1002 -1048 0
-1002 -1049 0
-1002 -1050 0
-1002 -1051 0
-1002 -1052 0
-1002 -1053 0
-1002 -1054 0
-1002 -1055 0
-1002 -1056 0
-1002 -1057 0
-1002 -1058 0
-1002 -1059 0
-1002 -1060 0
-1002 -1061 0
-1002 -1062 0
-1002 -1063 0
-1002 -1064 0
-1002 -1065 0
-1002 -1066 0
-1002 -1067 0
-1002 -1068 0
-1002 -1069 0
-1002 -1070 0
-1002 -1071 0
-1002 -1072 0
-1002 -1073 0
-1002 -1074 0
-1002 -1075 0
-1002 -1076 0
-1002 -1077 0
-1002 -1078 0
-1002 -1079 0
-1002 -1080 0
-1002 -1081 0
-1003 -1004 0
-1003 -1005 0
-1003 -1006 0
-1003 -1007 0
-1003 -1008 0
-1003 -1009 0
-1003 -1010 0
-1003 -1011 0
-1003 -1012 0
-1003 -1013 0
-1003 -1014 0
-1003 -1015 0
-1003 -1016 0
-1003 -1017 0
-1003 -1018 0
-1003 -1019 0
-1003 -1020 0
-1003 -1021 0
-1003 -1022 0
-1003 -1023 0
-1003 -1024 0
-1003 -1025 0
-1003 -1026 0
-1003 -1027 0
-1003 -1028 0
-1003 -1029 0
-1003 -1030 0
-1003 -1031 0
-1003 -1032 0
-1003 -1033 0
-1003 -1034 0
-1003 -1035 0
-1003 -1036 0
-1003 -1037 0
-1003 -1038 0
-1003 -1039 0
-1003 -1040 0
-1003 -1041 0
-1003 -1042 0
-1003 -1043 0
-1003 -1044 0
-1003 -1045 0
-1003 -1046 0
-1003 -1047 0
-1003 -1048 0
-1003 -1049 0
-1003 -1050 0
-1003 -1051 0
-1003 -1052 0
-1003 -1053 0
-1003 -1054 0
-1003 -1055 0
-1003 -1056 0
-1003 -1057 0
-1003 -1058 0
-1003 -1059 0
-1003 -1060 0
-1003 -1061 0
-1003 -1062 0
-1003 -1063 0
-1003 -1064 0
-1003 -1065 0
-1003 -1066 0
-1003 -1067 0
-1003 -1068 0
-1003 -1069 0
-1003 -1070 0
-1003 -1071 0
-1003 -1072 0
-1003 -1073 0
-1003 -1074 0
-1003 -1075 0
-1003 -1076 0
-1003 -1077 0
-1003 -1078 0
-1003 -1079 0
-1003 -1080 0
-1003 -1081 0
-1004 -1005 0
-1004 -1006 0
-1004 -1007 0
-1004 -1008 0
-1004 -1009 0
-1004 -1010 0
-1004 -1011 0
-1004 -1012 0
-1004 -1013 0
-1004 -1014 0
-1004 -1015 0
-1004 -1016 0
-1004 -1017 0
-1004 -1018 0
-1004 -1019 0
-1004 -1020 0
-1004 -1021 0
-1004 -1022 0
-1004 -1023 0
-1004 -1024 0
-1004 -1025 0
-1004 -1026 0
-1004 -1027 0
-1004 -1028 0
-1004 -1029 0
-1004 -1030 0
-1004 -1031 0
-1004 -1032 0
-1004 -1033 0
-1004 -1034 0
-1004 -1035 0
-1004 -1036 0
-1004 -1037 0
-1004 -1038 0
-1004 -1039 0
-1004 -1040 0
-1004 -1041 0
-1004 -1042 0
-1004 -1043 0
-1004 -1044 0
-1004 -1045 0
-1004 -1046 0
-1004 -1047 0
-1004 -1048 0
-1004 -1049 0
-1004 -1050 0
-1004 -1051 0
-1004 -1052 0
-1004 -1053 0
-1004 -1054 0
-1004 -1055 0
-1004 -1056 0
-1004 -1057 0
-1004 -1058 0
-1004 -1059 0
-1004 -1060 0
-1004 -1061 0
-1004 -1062 0
-1004 -1063 0
-1004 -1064 0
-1004 -1065 0
-1004 -1066 0
-1004 -1067 0
-1004 -1068 0
-1004 -1069 0
-1004 -1070 0
-1004 -1071 0
-1004 -1072 0
-1004 -1073 0
-1004 -1074 0
-1004 -1075 0
-1004 -1076 0
-1004 -1077 0
-1004 -1078 0
-1004 -1079 0
-1004 -1080 0
-1004 -1081 0
-1005 -1006 0
-1005 -1007 0
-1005 -1008 0
-1005 -1009 0
-1005 -1010 0
-1005 -1011 0
-1005 -1012 0
-1005 -1013 0
-1005 -1014 0
-1005 -1015 0
-1005 -1016 0
-1005 -1017 0
-1005 -1018 0
-1005 -1019 0
-1005 -1020 0
-1005 -1021 0
-1005 -1022 0
-1005 -1023 0
-1005 -1024 0
-1005 -1025 0
-1005 -1026 0
-1005 -1027 0
-1005 -1028 0
-1005 -1029 0
-1005 -1030 0
-1005 -1031 0
-1005 -1032 0
-1005 -1033 0
-1005 -1034 0
-1005 -1035 0
-1005 -1036 0
-1005 -1037 0
-1005 -1038 0
-1005 -1039 0
-1005 -1040 0
-1005 -1041 0
-1005 -1042 0
-1005 -1043 0
-1005 -1044 0
-1005 -1045 0
-1005 -1046 0
-1005 -1047 0
-1005 -1048 0
-1005 -1049 0
-1005 -1050 0
-1005 -1051 0
-1005 -1052 0
-1005 -1053 0
-1005 -1054 0
-1005 -1055 0
-1005 -1056 0
-1005 -1057 0
-1005 -1058 0
-1005 -1059 0
-1005 -1060 0
-1005 -1061 0
-1005 -1062 0
-1005 -1063 0
-1005 -1064 0
-1005 -1065 0
-1005 -1066 0
-1005 -1067 0
-1005 -1068 0
-1005 -1069 0
-1005 -1070 0
-1005 -1071 0
-1005 -1072 0
-1005 -1073 0
-1005 -1074 0
-1005 -1075 0
-1005 -1076 0
-1005 -1077 0
-1005 -1078 0
-1005 -1079 0
-1005 -1080 0
-1005 -1081 0
-1006 -1007 0
-1006 -1008 0
-1006 -1009 0
-1006 -1010 0
-1006 -1011 0
-1006 -1012 0
-1006 -1013 0
-1006 -1014 0
-1006 -1015 0
-1006 -1016 0
-1006 -1017 0
-1006 -1018 0
-1006 -1019 0
-1006 -1020 0
-1006 -1021 0
-1006 -1022 0
-1006 -1023 0
-1006 -1024 0
-1006 -1025 0
-1006 -1026 0
-1006 -1027 0
-1006 -1028 0
-1006 -1029 0
-1006 -1030 0
-1006 -1031 0
-1006 -1032 0
-1006 -1033 0
-1006 -1034 0
-1006 -1035 0
-1006 -1036 0
-1006 -1037 0
-1006 -1038 0
-1006 -1039 0
-1006 -1040 0
-1006 -1041 0
-1006 -1042 0
-1006 -1043 0
-1006 -1044 0
-1006 -1045 0
-1006 -1046 0
-1006 -1047 0
-1006 -1048 0
-1006 -1049 0
-1006 -1050 0
-1006 -1051 0
-1006 -1052 0
-1006 -1053 0
-1006 -1054 0
-1006 -1055 0
-1006 -1056 0
-1006 -1057 0
-1006 -1058 0
-1006 -1059 0
-1006 -1060 0
-1006 -1061 0
-1006 -1062 0
-1006 -1063 0
-1006 -1064 0
-1006 -1065 0
-1006 -1066 0
-1006 -1067 0
-1006 -1068 0
-1006 -1069 0
-1006 -1070 0
-1006 -1071 0
-1006 -1072 0
-1006 -1073 0
-1006 -1074 0
-1006 -1075 0
-1006 -1076 0
-1006 -1077 0
-1006 -1078 0
-1006 -1079 0
-1006 -1080 0
-1006 -1081 0
-1007 -1008 0
-1007 -1009 0
-1007 -1010 0
-1007 -1011 0
-1007 -1012 0
-1007 -1013 0
-1007 -1014 0
-1007 -1015 0
-1007 -1016 0
-1007 -1017 0
-1007 -1018 0
-1007 -1019 0
-1007 -1020 0
-1007 -1021 0
-1007 -1022 0
-1007 -1023 0
-1007 -1024 0
-1007 -1025 0
-1007 -1026 0
-1007 -1027 0
-1007 -1028 0
-1007 -1029 0
-1007 -1030 0
-1007 -1031 0
-1007 -1032 0
-1007 -1033 0
-1007 -1034 0
-1007 -1035 0
-1007 -1036 0
-1007 -1037 0
-1007 -1038 0
-1007 -1039 0
-1007 -1040 0
-1007 -1041 0
-1007 -1042 0
-1007 -1043 0
-1007 -1044 0
-1007 -1045 0
-1007 -1046 0
-1007 -1047 0
-1007 -1048 0
-1007 -1049 0
-1007 -1050 0
-1007 -1051 0
-1007 -1052 0
-1007 -1053 0
-1007 -1054 0
-1007 -1055 0
-1007 -1056 0
-1007 -1057 0
-1007 -1058 0
-1007 -1059 0
-1007 -1060 0
-1007 -1061 0
-1007 -1062 0
-1007 -1063 0
-1007 -1064 0
-1007 -1065 0
-1007 -1066 0
-1007 -1067 0
-1007 -1068 0
-1007 -1069 0
-1007 -1070 0
-1007 -1071 0
-1007 -1072 0
-1007 -1073 0
-1007 -1074 0
-1007 -1075 0
-1007 -1076 0
-1007 -1077 0
-1007 -1078 0
-1007 -1079 0
-1007 -1080 0
-1007 -1081 0
-1008 -1009 0
-1008 -1010 0
-1008 -1011 0
-1008 -1012 0
-1008 -1013 0
-1008 -1014 0
-1008 -1015 0
-1008 -1016 0
-1008 -1017 0
-1008 -1018 0
-1008 -1019 0
-1008 -1020 0
-1008 -1021 0
-1008 -1022 0
-1008 -1023 0
-1008 -1024 0
-1008 -1025 0
-1008 -1026 0
-1008 -1027 0
-1008 -1028 0
-1008 -1029 0
-1008 -1030 0
-1008 -1031 0
-1008 -1032 0
-1008 -1033 0
-1008 -1034 0
-1008 -1035 0
-1008 -1036 0
-1008 -1037 0
-1008 -1038 0
-1008 -1039 0
-1008 -1040 0
-1008 -1041 0
-1008 -1042 0
-1008 -1043 0
-1008 -1044 0
-1008 -1045 0
-1008 -1046 0
-1008 -1047 0
-1008 -1048 0
-1008 -1049 0
-1008 -1050 0
-1008 -1051 0
-1008 -1052 0
-1008 -1053 0
-1008 -1054 0
-1008 -1055 0
-1008 -1056 0
-1008 -1057 0
-1008 -1058 0
-1008 -1059 0
-1008 -1060 0
-1008 -1061 0
-1008 -1062 0
-1008 -1063 0
-1008 -1064 0
-1008 -1065 0
-1008 -1066 0
-1008 -1067 0
-1008 -1068 0
-1008 -1069 0
-1008 -1070 0
-1008 -1071 0
-1008 -1072 0
-1008 -1073 0
-1008 -1074 0
-1008 -1075 0
-1008 -1076 0
-1008 -1077 0
-1008 -1078 0
-1008 -1079 0
-1008 -1080 0
-1008 -1081 0
-1009 -1010 0
-1009 -1011 0
-1009 -1012 0
-1009 -1013 0
-1009 -1014 0
-1009 -1015 0
-1009 -1016 0
-1009 -1017 0
-1009 -1018 0
-1009 -1019 0
-1009 -1020 0
-1009 -1021 0
-1009 -1022 0
-1009 -1023 0
-1009 -1024 0
-1009 -1025 0
-1009 -1026 0
-1009 -1027 0
-1009 -1028 0
-1009 -1029 0
-1009 -1030 0
-1009 -1031 0
-1009 -1032 0
-1009 -1033 0
-1009 -1034 0
-1009 -1035 0
-1009 -1036 0
-1009 -1037 0
-1009 -1038 0
-1009 -1039 0
-1009 -1040 0
-1009 -1041 0
-1009 -1042 0
-1009 -1043 0
-1009 -1044 0
-1009 -1045 0
-1009 -1046 0
-1009 -1047 0
-1009 -1048 0
-1009 -1049 0
-1009 -1050 0
-1009 -1051 0
-1009 -1052 0
-1009 -1053 0
-1009 -1054 0
-1009 -1055 0
-1009 -1056 0
-1009 -1057 0
-1009 -1058 0
-1009 -1059 0
-1009 -1060 0
-1009 -1061 0
-1009 -1062 0
-1009 -1063 0
-1009 -1064 0
-1009 -1065 0
-1009 -1066 0
-1009 -1067 0
-1009 -1068 0
-1009 -1069 0
-1009 -1070 0
-1009 -1071 0
-1009 -1072 0
-1009 -1073 0
-1009 -1074 0
-1009 -1075 0
-1009 -1076 0
-1009 -1077 0
-1009 -1078 0
-1009 -1079 0
-1009 -1080 0
-1009 -1081 0
-1010 -1011 0
-1010 -1012 0
-1010 -1013 0
-1010 -1014 0
-1010 -1015 0
-1010 -1016 0
-1010 -1017 0
-1010 -1018 0
-1010 -1019 0
-1010 -1020 0
-1010 -1021 0
-1010 -1022 0
-1010 -1023 0
-1010 -1024 0
-1010 -1025 0
-1010 -1026 0
-1010 -1027 0
-1010 -1028 0
-1010 -1029 0
-1010 -1030 0
-1010 -1031 0
-1010 -1032 0
-1010 -1033 0
-1010 -1034 0
-1010 -1035 0
-1010 -1036 0
-1010 -1037 0
-1010 -1038 0
-1010 -1039 0
-1010 -1040 0
-1010 -1041 0
-1010 -1042 0
-1010 -1043 0
-1010 -1044 0
-1010 -1045 0
-1010 -1046 0
-1010 -1047 0
-1010 -1048 0
-1010 -1049 0
-1010 -1050 0
-1010 -1051 0
-1010 -1052 0
-1010 -1053 0
-1010 -1054 0
-1010 -1055 0
-1010 -1056 0
-1010 -1057 0
-1010 -1058 0
-1010 -1059 0
-1010 -1060 0
-1010 -1061 0
-1010 -1062 0
-1010 -1063 0
-1010 -1064 0
-1010 -1065 0
-1010 -1066 0
-1010 -1067 0
-1010 -1068 0
-1010 -1069 0
-1010 -1070 0
-1010 -1071 0
-1010 -1072 0
-1010 -1073 0
-1010 -1074 0
-1010 -1075 0
-1010 -1076 0
-1010 -1077 0
-1010 -1078 0
-1010 -1079 0
-1010 -1080 0
-1010 -1081 0
-1011 -1012 0
-1011 -1013 0
-1011 -1014 0
-1011 -1015 0
-1011 -1016 0
-1011 -1017 0
-1011 -1018 0
-1011 -1019 0
-1011 -1020 0
-1011 -1021 0
-1011 -1022 0
-1011 -1023 0
-1011 -1024 0
-1011 -1025 0
-1011 -1026 0
-1011 -1027 0
-1011 -1028 0
-1011 -1029 0
-1011 -1030 0
-1011 -1031 0
-1011 -1032 0
-1011 -1033 0
-1011 -1034 0
-1011 -1035 0
-1011 -1036 0
-1011 -1037 0
-1011 -1038 0
-1011 -1039 0
-1011 -1040 0
-1011 -1041 0
-1011 -1042 0
-1011 -1043 0
-1011 -1044 0
-1011 -1045 0
-1011 -1046 0
-1011 -1047 0
-1011 -1048 0
-1011 -1049 0
-1011 -1050 0
-1011 -1051 0
-1011 -1052 0
-1011 -1053 0
-1011 -1054 0
-1011 -1055 0
-1011 -1056 0
-1011 -1057 0
-1011 -1058 0
-1011 -1059 0
-1011 -1060 0
-1011 -1061 0
-1011 -1062 0
-1011 -1063 0
-1011 -1064 0
-1011 -1065 0
-1011 -1066 0
-1011 -1067 0
-1011 -1068 0
-1011 -1069 0
-1011 -1070 0
-1011 -1071 0
-1011 -1072 0
-1011 -1073 0
-1011 -1074 0
-1011 -1075 0
-1011 -1076 0
-1011 -1077 0
-1011 -1078 0
-1011 -1079 0
-1011 -1080 0
-1011 -1081 0
-1012 -1013 0
-1012 -1014 0
-1012 -1015 0
-1012 -1016 0
-1012 -1017 0
-1012 -1018 0
-1012 -1019 0
-1012 -1020 0
-1012 -1021 0
-1012 -1022 0
-1012 -1023 0
-1012 -1024 0
-1012 -1025 0
-1012 -1026 0
-1012 -1027 0
-1012 -1028 0
-1012 -1029 0
-1012 -1030 0
-1012 -1031 0
-1012 -1032 0
-1012 -1033 0
-1012 -1034 0
-1012 -1035 0
-1012 -1036 0
-1012 -1037 0
-1012 -1038 0
-1012 -1039 0
-1012 -1040 0
-1012 -1041 0
-1012 -1042 0
-1012 -1043 0
-1012 -1044 0
-1012 -1045 0
-1012 -1046 0
-1012 -1047 0
-1012 -1048 0
-1012 -1049 0
-1012 -1050 0
-1012 -1051 0
-1012 -1052 0
-1012 -1053 0
-1012 -1054 0
-1012 -1055 0
-1012 -1056 0
-1012 -1057 0
-1012 -1058 0
-1012 -1059 0
-1012 -1060 0
-1012 -1061 0
-1012 -1062 0
-1012 -1063 0
-1012 -1064 0
-1012 -1065 0
-1012 -1066 0
-1012 -1067 0
-1012 -1068 0
-1012 -1069 0
-1012 -1070 0
-1012 -1071 0
-1012 -1072 0
-1012 -1073 0
-1012 -1074 0
-1012 -1075 0
-1012 -1076 0
-1012 -1077 0
-1012 -1078 0
-1012 -1079 0
-1012 -1080 0
-1012 -1081 0
-1013 -1014 0
-1013 -1015 0
-1013 -1016 0
-1013 -1017 0
-1013 -1018 0
-1013 -1019 0
-1013 -1020 0
-1013 -1021 0
-1013 -1022 0
-1013 -1023 0
-1013 -1024 0
-1013 -1025 0
-1013 -1026 0
-1013 -1027 0
-1013 -1028 0
-1013 -1029 0
-1013 -1030 0
-1013 -1031 0
-1013 -1032 0
-1013 -1033 0
-1013 -1034 0
-1013 -1035 0
-1013 -1036 0
-1013 -1037 0
-1013 -1038 0
-1013 -1039 0
-1013 -1040 0
-1013 -1041 0
-1013 -1042 0
-1013 -1043 0
-1013 -1044 0
-1013 -1045 0
-1013 -1046 0
-1013 -1047 0
-1013 -1048 0
-1013 -1049 0
-1013 -1050 0
-1013 -1051 0
-1013 -1052 0
-1013 -1053 0
-1013 -1054 0
-1013 -1055 0
-1013 -1056 0
-1013 -1057 0
-1013 -1058 0
-1013 -1059 0
-1013 -1060 0
-1013 -1061 0
-1013 -1062 0
-1013 -1063 0
-1013 -1064 0
-1013 -1065 0
-1013 -1066 0
-1013 -1067 0
-1013 -1068 0
-1013 -1069 0
-1013 -1070 0
-1013 -1071 0
-1013 -1072 0
-1013 -1073 0
-1013 -1074 0
-1013 -1075 0
-1013 -1076 0
-1013 -1077 0
-1013 -1078 0
-1013 -1079 0
-1013 -1080 0
-1013 -1081 0
-1014 -1015 0
-1014 -1016 0
-1014 -1017 0
-1014 -1018 0
-1014 -1019 0
-1014 -1020 0
-1014 -1021 0
-1014 -1022 0
-1014 -1023 0
-1014 -1024 0
-1014 -1025 0
-1014 -1026 0
-1014 -1027 0
-1014 -1028 0
-1014 -1029 0
-1014 -1030 0
-1014 -1031 0
-1014 -1032 0
-1014 -1033 0
-1014 -1034 0
-1014 -1035 0
-1014 -1036 0
-1014 -1037 0
-1014 -1038 0
-1014 -1039 0
-1014 -1040 0
-1014 -1041 0
-1014 -1042 0
-1014 -1043 0
-1014 -1044 0
-1014 -1045 0
-1014 -1046 0
-1014 -1047 0
-1014 -1048 0
-1014 -1049 0
-1014 -1050 0
-1014 -1051 0
-1014 -1052 0
-1014 -1053 0
-1014 -1054 0
-1014 -1055 0
-1014 -1056 0
-1014 -1057 0
-1014 -1058 0
-1014 -1059 0
-1014 -1060 0
-1014 -1061 0
-1014 -1062 0
-1014 -1063 0
-1014 -1064 0
-1014 -1065 0
-1014 -1066 0
-1014 -1067 0
-1014 -1068 0
-1014 -1069 0
-1014 -1070 0
-1014 -1071 0
-1014 -1072 0
-1014 -1073 0
-1014 -1074 0
-1014 -1075 0
-1014 -1076 0
-1014 -1077 0
-1014 -1078 0
-1014 -1079 0
-1014 -1080 0
-1014 -1081 0
-1015 -1016 0
-1015 -1017 0
-1015 -1018 0
-1015 -1019 0
-1015 -1020 0
-1015 -1021 0
-1015 -1022 0
-1015 -1023 0
-1015 -1024 0
-1015 -1025 0
-1015 -1026 0
-1015 -1027 0
-1015 -1028 0
-1015 -1029 0
-1015 -1030 0
-1015 -1031 0
-1015 -1032 0
-1015 -1033 0
-1015 -1034 0
-1015 -1035 0
-1015 -1036 0
-1015 -1037 0
-1015 -1038 0
-1015 -1039 0
-1015 -1040 0
-1015 -1041 0
-1015 -1042 0
-1015 -1043 0
-1015 -1044 0
-1015 -1045 0
-1015 -1046 0
-1015 -1047 0
-1015 -1048 0
-1015 -1049 0
-1015 -1050 0
-1015 -1051 0
-1015 -1052 0
-1015 -1053 0
-1015 -1054 0
-1015 -1055 0
-1015 -1056 0
-1015 -1057 0
-1015 -1058 0
-1015 -1059 0
-1015 -1060 0
-1015 -1061 0
-1015 -1062 0
-1015 -1063 0
-1015 -1064 0
-1015 -1065 0
-1015 -1066 0
-1015 -1067 0
-1015 -1068 0
-1015 -1069 0
-1015 -1070 0
-1015 -1071 0
-1015 -1072 0
-1015 -1073 0
-1015 -1074 0
-1015 -1075 0
-1015 -1076 0
-1015 -1077 0
-1015 -1078 0
-1015 -1079 0
-1015 -1080 0
-1015 -1081 0
-1016 -1017 0
-1016 -1018 0
-1016 -1019 0
-1016 -1020 0
-1016 -1021 0
-1016 -1022 0
-1016 -1023 0
-1016 -1024 0
-1016 -1025 0
-1016 -1026 0
-1016 -1027 0
-1016 -1028 0
-1016 -1029 0
-1016 -1030 0
-1016 -1031 0
-1016 -1032 0
-1016 -1033 0
-1016 -1034 0
-1016 -1035 0
-1016 -1036 0
-1016 -1037 0
-1016 -1038 0
-1016 -1039 0
-1016 -1040 0
-1016 -1041 0
-1016 -1042 0
-1016 -1043 0
-1016 -1044 0
-1016 -1045 0
-1016 -1046 0
-1016 -1047 0
-1016 -1048 0
-1016 -1049 0
-1016 -1050 0
-1016 -1051 0
-1016 -1052 0
-1016 -1053 0
-1016 -1054 0
-1016 -1055 0
-1016 -1056 0
-1016 -1057 0
-1016 -1058 0
-1016 -1059 0
-1016 -1060 0
-1016 -1061 0
-1016 -1062 0
-1016 -1063 0
-1016 -1064 0
-1016 -1065 0
-1016 -1066 0
-1016 -1067 0
-1016 -1068 0
-1016 -1069 0
-1016 -1070 0
-1016 -1071 0
-1016 -1072 0
-1016 -1073 0
-1016 -1074 0
-1016 -1075 0
-1016 -1076 0
-1016 -1077 0
-1016 -1078 0
-1016 -1079 0
-1016 -1080 0
-1016 -1081 0
-1017 -1018 0
-1017 -1019 0
-1017 -1020 0
-1017 -1021 0
-1017 -1022 0
-1017 -1023 0
-1017 -1024 0
-1017 -1025 0
-1017 -1026 0
-1017 -1027 0
-1017 -1028 0
-1017 -1029 0
-1017 -1030 0
-1017 -1031 0
-1017 -1032 0
-1017 -1033 0
-1017 -1034 0
-1017 -1035 0
-1017 -1036 0
-1017 -1037 0
-1017 -1038 0
-1017 -1039 0
-1017 -1040 0
-1017 -1041 0
-1017 -1042 0
-1017 -1043 0
-1017 -1044 0
-1017 -1045 0
-1017 -1046 0
-1017 -1047 0
-1017 -1048 0
-1017 -1049 0
-1017 -1050 0
-1017 -1051 0
-1017 -1052 0
-1017 -1053 0
-1017 -1054 0
-1017 -1055 0
-1017 -1056 0
-1017 -1057 0
-1017 -1058 0
-1017 -1059 0
-1017 -1060 0
-1017 -1061 0
-1017 -1062 0
-1017 -1063 0
-1017 -1064 0
-1017 -1065 0
-1017 -1066 0
-1017 -1067 0
-1017 -1068 0
-1017 -1069 0
-1017 -1070 0
-1017 -1071 0
-1017 -1072 0
-1017 -1073 0
-1017 -1074 0
-1017 -1075 0
-1017 -1076 0
-1017 -1077 0
-1017 -1078 0
-1017 -1079 0
-1017 -1080 0
-1017 -1081 0
-1018 -1019 0
-1018 -1020 0
-1018 -1021 0
-1018 -1022 0
-1018 -1023 0
-1018 -1024 0
-1018 -1025 0
-1018 -1026 0
-1018 -1027 0
-1018 -1028 0
-1018 -1029 0
-1018 -1030 0
-1018 -1031 0
-1018 -1032 0
-1018 -1033 0
-1018 -1034 0
-1018 -1035 0
-1018 -1036 0
-1018 -1037 0
-1018 -1038 0
-1018 -1039 0
-1018 -1040 0
-1018 -1041 0
-1018 -1042 0
-1018 -1043 0
-1018 -1044 0
-1018 -1045 0
-1018 -1046 0
-1018 -1047 0
-1018 -1048 0
-1018 -1049 0
-1018 -1050 0
-1018 -1051 0
-1018 -1052 0
-1018 -1053 0
-1018 -1054 0
-1018 -1055 0
-1018 -1056 0
-1018 -1057 0
-1018 -1058 0
-1018 -1059 0
-1018 -1060 0
-1018 -1061 0
-1018 -1062 0
-1018 -1063 0
-1018 -1064 0
-1018 -1065 0
-1018 -1066 0
-1018 -1067 0
-1018 -1068 0
-1018 -1069 0
-1018 -1070 0
-1018 -1071 0
-1018 -1072 0
-1018 -1073 0
-1018 -1074 0
-1018 -1075 0
-1018 -1076 0
-1018 -1077 0
-1018 -1078 0
-1018 -1079 0
-1018 -1080 0
-1018 -1081 0
-1019 -1020 0
-1019 -1021 0
-1019 -1022 0
-1019 -1023 0
-1019 -1024 0
-1019 -1025 0
-1019 -1026 0
-1019 -1027 0
-1019 -1028 0
-1019 -1029 0
-1019 -1030 0
-1019 -1031 0
-1019 -1032 0
-1019 -1033 0
-1019 -1034 0
-1019 -1035 0
-1019 -1036 0
-1019 -1037 0
-1019 -1038 0
-1019 -1039 0
-1019 -1040 0
-1019 -1041 0
-1019 -1042 0
-1019 -1043 0
-1019 -1044 0
-1019 -1045 0
-1019 -1046 0
-1019 -1047 0
-1019 -1048 0
-1019 -1049 0
-1019 -1050 0
-1019 -1051 0
-1019 -1052 0
-1019 -1053 0
-1019 -1054 0
-1019 -1055 0
-1019 -1056 0
-1019 -1057 0
-1019 -1058 0
-1019 -1059 0
-1019 -1060 0
-1019 -1061 0
-1019 -1062 0
-1019 -1063 0
-1019 -1064 0
-1019 -1065 0
-1019 -1066 0
-1019 -1067 0
-1019 -1068 0
-1019 -1069 0
-1019 -1070 0
-1019 -1071 0
-1019 -1072 0
-1019 -1073 0
-1019 -1074 0
-1019 -1075 0
-1019 -1076 0
-1019 -1077 0
-1019 -1078 0
-1019 -1079 0
-1019 -1080 0
-1019 -1081 0
-1020 -1021 0
-1020 -1022 0
-1020 -1023 0
-1020 -1024 0
-1020 -1025 0
-1020 -1026 0
-1020 -1027 0
-1020 -1028 0
-1020 -1029 0
-1020 -1030 0
-1020 -1031 0
-1020 -1032 0
-1020 -1033 0
-1020 -1034 0
-1020 -1035 0
-1020 -1036 0
-1020 -1037 0
-1020 -1038 0
-1020 -1039 0
-1020 -1040 0
-1020 -1041 0
-1020 -1042 0
-1020 -1043 0
-1020 -1044 0
-1020 -1045 0
-1020 -1046 0
-1020 -1047 0
-1020 -1048 0
-1020 -1049 0
-1020 -1050 0
-1020 -1051 0
-1020 -1052 0
-1020 -1053 0
-1020 -1054 0
-1020 -1055 0
-1020 -1056 0
-1020 -1057 0
-1020 -1058 0
-1020 -1059 0
-1020 -1060 0
-1020 -1061 0
-1020 -1062 0
-1020 -1063 0
-1020 -1064 0
-1020 -1065 0
-1020 -1066 0
-1020 -1067 0
-1020 -1068 0
-1020 -1069 0
-1020 -1070 0
-1020 -1071 0
-1020 -1072 0
-1020 -1073 0
-1020 -1074 0
-1020 -1075 0
-1020 -1076 0
-1020 -1077 0
-1020 -1078 0
-1020 -1079 0
-1020 -1080 0
-1020 -1081 0
-1021 -1022 0
-1021 -1023 0
-1021 -1024 0
-1021 -1025 0
-1021 -1026 0
-1021 -1027 0
-1021 -1028 0
-1021 -1029 0
-1021 -1030 0
-1021 -1031 0
-1021 -1032 0
-1021 -1033 0
-1021 -1034 0
-1021 -1035 0
-1021 -1036 0
-1021 -1037 0
-1021 -1038 0
-1021 -1039 0
-1021 -1040 0
-1021 -1041 0
-1021 -1042 0
-1021 -1043 0
-1021 -1044 0
-1021 -1045 0
-1021 -1046 0
-1021 -1047 0
-1021 -1048 0
-1021 -1049 0
-1021 -1050 0
-1021 -1051 0
-1021 -1052 0
-1021 -1053 0
-1021 -1054 0
-1021 -1055 0
-1021 -1056 0
-1021 -1057 0
-1021 -1058 0
-1021 -1059 0
-1021 -1060 0
-1021 -1061 0
-1021 -1062 0
-1021 -1063 0
-1021 -1064 0
-1021 -1065 0
-1021 -1066 0
-1021 -1067 0
-1021 -1068 0
-1021 -1069 0
-1021 -1070 0
-1021 -1071 0
-1021 -1072 0
-1021 -1073 0
-1021 -1074 0
-1021 -1075 0
-1021 -1076 0
-1021 -1077 0
-1021 -1078 0
-1021 -1079 0
-1021 -1080 0
-1021 -1081 0
-1022 -1023 0
-1022 -1024 0
-1022 -1025 0
-1022 -1026 0
-1022 -1027 0
-1022 -1028 0
-1022 -1029 0
-1022 -1030 0
-1022 -1031 0
-1022 -1032 0
-1022 -1033 0
-1022 -1034 0
-1022 -1035 0
-1022 -1036 0
-1022 -1037 0
-1022 -1038 0
-1022 -1039 0
-1022 -1040 0
-1022 -1041 0
-1022 -1042 0
-1022 -1043 0
-1022 -1044 0
-1022 -1045 0
-1022 -1046 0
-1022 -1047 0
-1022 -1048 0
-1022 -1049 0
-1022 -1050 0
-1022 -1051 0
-1022 -1052 0
-1022 -1053 0
-1022 -1054 0
-1022 -1055 0
-1022 -1056 0
-1022 -1057 0
-1022 -1058 0
-1022 -1059 0
-1022 -1060 0
-1022 -1061 0
-1022 -1062 0
-1022 -1063 0
-1022 -1064 0
-1022 -1065 0
-1022 -1066 0
-1022 -1067 0
-1022 -1068 0
-1022 -1069 0
-1022 -1070 0
-1022 -1071 0
-1022 -1072 0
-1022 -1073 0
-1022 -1074 0
-1022 -1075 0
-1022 -1076 0
-1022 -1077 0
-1022 -1078 0
-1022 -1079 0
-1022 -1080 0
-1022 -1081 0
-1023 -1024 0
-1023 -1025 0
-1023 -1026 0
-1023 -1027 0
-1023 -1028 0
-1023 -1029 0
-1023 -1030 0
-1023 -1031 0
-1023 -1032 0
-1023 -1033 0
-1023 -1034 0
-1023 -1035 0
-1023 -1036 0
-1023 -1037 0
-1023 -1038 0
-1023 -1039 0
-1023 -1040 0
-1023 -1041 0
-1023 -1042 0
-1023 -1043 0
-1023 -1044 0
-1023 -1045 0
-1023 -1046 0
-1023 -1047 0
-1023 -1048 0
-1023 -1049 0
-1023 -1050 0
-1023 -1051 0
-1023 -1052 0
-1023 -1053 0
-1023 -1054 0
-1023 -1055 0
-1023 -1056 0
-1023 -1057 0
-1023 -1058 0
-1023 -1059 0
-1023 -1060 0
-1023 -1061 0
-1023 -1062 0
-1023 -1063 0
-1023 -1064 0
-1023 -1065 0
-1023 -1066 0
-1023 -1067 0
-1023 -1068 0
-1023 -1069 0
-1023 -1070 0
-1023 -1071 0
-1023 -1072 0
-1023 -1073 0
-1023 -1074 0
-1023 -1075 0
-1023 -1076 0
-1023 -1077 0
-1023 -1078 0
-1023 -1079 0
-1023 -1080 0
-1023 -1081 0
-1024 -1025 0
-1024 -1026 0
-1024 -1027 0
-1024 -1028 0
-1024 -1029 0
-1024 -1030 0
-1024 -1031 0
-1024 -1032 0
-1024 -1033 0
-1024 -1034 0
-1024 -1035 0
-1024 -1036 0
-1024 -1037 0
-1024 -1038 0
-1024 -1039 0
-1024 -1040 0
-1024 -1041 0
-1024 -1042 0
-1024 -1043 0
-1024 -1044 0
-1024 -1045 0
-1024 -1046 0
-1024 -1047 0
-1024 -1048 0
-1024 -1049 0
-1024 -1050 0
-1024 -1051 0
-1024 -1052 0
-1024 -1053 0
-1024 -1054 0
-1024 -1055 0
-1024 -1056 0
-1024 -1057 0
-1024 -1058 0
-1024 -1059 0
-1024 -1060 0
-1024 -1061 0
-1024 -1062 0
-1024 -1063 0
-1024 -1064 0
-1024 -1065 0
-1024 -1066 0
-1024 -1067 0
-1024 -1068 0
-1024 -1069 0
-1024 -1070 0
-1024 -1071 0
-1024 -1072 0
-1024 -1073 0
-1024 -1074 0
-1024 -1075 0
-1024 -1076 0
-1024 -1077 0
-1024 -1078 0
-1024 -1079 0
-1024 -1080 0
-1024 -1081 0
-1025 -1026 0
-1025 -1027 0
-1025 -1028 0
-1025 -1029 0
-1025 -1030 0
-1025 -1031 0
-1025 -1032 0
-1025 -1033 0
-1025 -1034 0
-1025 -1035 0
-1025 -1036 0
-1025 -1037 0
-1025 -1038 0
-1025 -1039 0
-1025 -1040 0
-1025 -1041 0
-1025 -1042 0
-1025 -1043 0
-1025 -1044 0
-1025 -1045 0
-1025 -1046 0
-1025 -1047 0
-1025 -1048 0
-1025 -1049 0
-1025 -1050 0
-1025 -1051 0
-1025 -1052 0
-1025 -1053 0
-1025 -1054 0
-1025 -1055 0
-1025 -1056 0
-1025 -1057 0
-1025 -1058 0
-1025 -1059 0
-1025 -1060 0
-1025 -1061 0
-1025 -1062 0
-1025 -1063 0
-1025 -1064 0
-1025 -1065 0
-1025 -1066 0
-1025 -1067 0
-1025 -1068 0
-1025 -1069 0
-1025 -1070 0
-1025 -1071 0
-1025 -1072 0
-1025 -1073 0
-1025 -1074 0
-1025 -1075 0
-1025 -1076 0
-1025 -1077 0
-1025 -1078 0
-1025 -1079 0
-1025 -1080 0
-1025 -1081 0
-1026 -1027 0
-1026 -1028 0
-1026 -1029 0
-1026 -1030 0
-1026 -1031 0
-1026 -1032 0
-1026 -1033 0
-1026 -1034 0
-1026 -1035 0
-1026 -1036 0
-1026 -1037 0
-1026 -1038 0
-1026 -1039 0
-1026 -1040 0
-1026 -1041 0
-1026 -1042 0
-1026 -1043 0
-1026 -1044 0
-1026 -1045 0
-1026 -1046 0
-1026 -1047 0
-1026 -1048 0
-1026 -1049 0
-1026 -1050 0
-1026 -1051 0
-1026 -1052 0
-1026 -1053 0
-1026 -1054 0
-1026 -1055 0
-1026 -1056 0
-1026 -1057 0
-1026 -1058 0
-1026 -1059 0
-1026 -1060 0
-1026 -1061 0
-1026 -1062 0
-1026 -1063 0
-1026 -1064 0
-1026 -1065 0
-1026 -1066 0
-1026 -1067 0
-1026 -1068 0
-1026 -1069 0
-1026 -1070 0
-1026 -1071 0
-1026 -1072 0
-1026 -1073 0
-1026 -1074 0
-1026 -1075 0
-1026 -1076 0
-1026 -1077 0
-1026 -1078 0
-1026 -1079 0
-1026 -1080 0
-1026 -1081 0
-1027 -1028 0
-1027 -1029 0
-1027 -1030 0
-1027 -1031 0
-1027 -1032 0
-1027 -1033 0
-1027 -1034 0
-1027 -1035 0
-1027 -1036 0
-1027 -1037 0
-1027 -1038 0
-1027 -1039 0
-1027 -1040 0
-1027 -1041 0
-1027 -1042 0
-1027 -1043 0
-1027 -1044 0
-1027 -1045 0
-1027 -1046 0
-1027 -1047 0
-1027 -1048 0
-1027 -1049 0
-1027 -1050 0
-1027 -1051 0
-1027 -1052 0
-1027 -1053 0
-1027 -1054 0
-1027 -1055 0
-1027 -1056 0
-1027 -1057 0
-1027 -1058 0
-1027 -1059 0
-1027 -1060 0
-1027 -1061 0
-1027 -1062 0
-1027 -1063 0
-1027 -1064 0
-1027 -1065 0
-1027 -1066 0
-1027 -1067 0
-1027 -1068 0
-1027 -1069 0
-1027 -1070 0
-1027 -1071 0
-1027 -1072 0
-1027 -1073 0
-1027 -1074 0
-1027 -1075 0
-1027 -1076 0
-1027 -1077 0
-1027 -1078 0
-1027 -1079 0
-1027 -1080 0
-1027 -1081 0
-1028 -1029 0
-1028 -1030 0
-1028 -1031 0
-1028 -1032 0
-1028 -1033 0
-1028 -1034 0
-1028 -1035 0
-1028 -1036 0
-1028 -1037 0
-1028 -1038 0
-1028 -1039 0
-1028 -1040 0
-1028 -1041 0
-1028 -1042 0
-1028 -1043 0
-1028 -1044 0
-1028 -1045 0
-1028 -1046 0
-1028 -1047 0
-1028 -1048 0
-1028 -1049 0
-1028 -1050 0
-1028 -1051 0
-1028 -1052 0
-1028 -1053 0
-1028 -1054 0
-1028 -1055 0
-1028 -1056 0
-1028 -1057 0
-1028 -1058 0
-1028 -1059 0
-1028 -1060 0
-1028 -1061 0
-1028 -1062 0
-1028 -1063 0
-1028 -1064 0
-1028 -1065 0
-1028 -1066 0
-1028 -1067 0
-1028 -1068 0
-1028 -1069 0
-1028 -1070 0
-1028 -1071 0
-1028 -1072 0
-1028 -1073 0
-1028 -1074 0
-1028 -1075 0
-1028 -1076 0
-1028 -1077 0
-1028 -1078 0
-1028 -1079 0
-1028 -1080 0
-1028 -1081 0
-1029 -1030 0
-1029 -1031 0
-1029 -1032 0
-1029 -1033 0
-1029 -1034 0
-1029 -1035 0
-1029 -1036 0
-1029 -1037 0
-1029 -1038 0
-1029 -1039 0
-1029 -1040 0
-1029 -1041 0
-1029 -1042 0
-1029 -1043 0
-1029 -1044 0
-1029 -1045 0
-1029 -1046 0
-1029 -1047 0
-1029 -1048 0
-1029 -1049 0
-1029 -1050 0
-1029 -1051 0
-1029 -1052 0
-1029 -1053 0
-1029 -1054 0
-1029 -1055 0
-1029 -1056 0
-1029 -1057 0
-1029 -1058 0
-1029 -1059 0
-1029 -1060 0
-1029 -1061 0
-1029 -1062 0
-1029 -1063 0
-1029 -1064 0
-1029 -1065 0
-1029 -1066 0
-1029 -1067 0
-1029 -1068 0
-1029 -1069 0
-1029 -1070 0
-1029 -1071 0
-1029 -1072 0
-1029 -1073 0
-1029 -1074 0
-1029 -1075 0
-1029 -1076 0
-1029 -1077 0
-1029 -1078 0
-1029 -1079 0
-1029 -1080 0
-1029 -1081 0
-1030 -1031 0
-1030 -1032 0
-1030 -1033 0
-1030 -1034 0
-1030 -1035 0
-1030 -1036 0
-1030 -1037 0
-1030 -1038 0
-1030 -1039 0
-1030 -1040 0
-1030 -1041 0
-1030 -1042 0
-1030 -1043 0
-1030 -1044 0
-1030 -1045 0
-1030 -1046 0
-1030 -1047 0
-1030 -1048 0
-1030 -1049 0
-1030 -1050 0
-1030 -1051 0
-1030 -1052 0
-1030 -1053 0
-1030 -1054 0
-1030 -1055 0
-1030 -1056 0
-1030 -1057 0
-1030 -1058 0
-1030 -1059 0
-1030 -1060 0
-1030 -1061 0
-1030 -1062 0
-1030 -1063 0
-1030 -1064 0
-1030 -1065 0
-1030 -1066 0
-1030 -1067 0
-1030 -1068 0
-1030 -1069 0
-1030 -1070 0
-1030 -1071 0
-1030 -1072 0
-1030 -1073 0
-1030 -1074 0
-1030 -1075 0
-1030 -1076 0
-1030 -1077 0
-1030 -1078 0
-1030 -1079 0
-1030 -1080 0
-1030 -1081 0
-1031 -1032 0
-1031 -1033 0
-1031 -1034 0
-1031 -1035 0
-1031 -1036 0
-1031 -1037 0
-1031 -1038 0
-1031 -1039 0
-1031 -1040 0
-1031 -1041 0
-1031 -1042 0
-1031 -1043 0
-1031 -1044 0
-1031 -1045 0
-1031 -1046 0
-1031 -1047 0
-1031 -1048 0
-1031 -1049 0
-1031 -1050 0
-1031 -1051 0
-1031 -1052 0
-1031 -1053 0
-1031 -1054 0
-1031 -1055 0
-1031 -1056 0
-1031 -1057 0
-1031 -1058 0
-1031 -1059 0
-1031 -1060 0
-1031 -1061 0
-1031 -1062 0
-1031 -1063 0
-1031 -1064 0
-1031 -1065 0
-1031 -1066 0
-1031 -1067 0
-1031 -1068 0
-1031 -1069 0
-1031 -1070 0
-1031 -1071 0
-1031 -1072 0
-1031 -1073 0
-1031 -1074 0
-1031 -1075 0
-1031 -1076 0
-1031 -1077 0
-1031 -1078 0
-1031 -1079 0
-1031 -1080 0
-1031 -1081 0
-1032 -1033 0
-1032 -1034 0
-1032 -1035 0
-1032 -1036 0
-1032 -1037 0
-1032 -1038 0
-1032 -1039 0
-1032 -1040 0
-1032 -1041 0
-1032 -1042 0
-1032 -1043 0
-1032 -1044 0
-1032 -1045 0
-1032 -1046 0
-1032 -1047 0
-1032 -1048 0
-1032 -1049 0
-1032 -1050 0
-1032 -1051 0
-1032 -1052 0
-1032 -1053 0
-1032 -1054 0
-1032 -1055 0
-1032 -1056 0
-1032 -1057 0
-1032 -1058 0
-1032 -1059 0
-1032 -1060 0
-1032 -1061 0
-1032 -1062 0
-1032 -1063 0
-1032 -1064 0
-1032 -1065 0
-1032 -1066 0
-1032 -1067 0
-1032 -1068 0
-1032 -1069 0
-1032 -1070 0
-1032 -1071 0
-1032 -1072 0
-1032 -1073 0
-1032 -1074 0
-1032 -1075 0
-1032 -1076 0
-1032 -1077 0
-1032 -1078 0
-1032 -1079 0
-1032 -1080 0
-1032 -1081 0
-1033 -1034 0
-1033 -1035 0
-1033 -1036 0
-1033 -1037 0
-1033 -1038 0
-1033 -1039 0
-1033 -1040 0
-1033 -1041 0
-1033 -1042 0
-1033 -1043 0
-1033 -1044 0
-1033 -1045 0
-1033 -1046 0
-1033 -1047 0
-1033 -1048 0
-1033 -1049 0
-1033 -1050 0
-1033 -1051 0
-1033 -1052 0
-1033 -1053 0
-1033 -1054 0
-1033 -1055 0
-1033 -1056 0
-1033 -1057 0
-1033 -1058 0
-1033 -1059 0
-1033 -1060 0
-1033 -1061 0
-1033 -1062 0
-1033 -1063 0
-1033 -1064 0
-1033 -1065 0
-1033 -1066 0
-1033 -1067 0
-1033 -1068 0
-1033 -1069 0
-1033 -1070 0
-1033 -1071 0
-1033 -1072 0
-1033 -1073 0
-1033 -1074 0
-1033 -1075 0
-1033 -1076 0
-1033 -1077 0
-1033 -1078 0
-1033 -1079 0
-1033 -1080 0
-1033 -1081 0
-1034 -1035 0
-1034 -1036 0
-1034 -1037 0
-1034 -1038 0
-1034 -1039 0
-1034 -1040 0
-1034 -1041 0
-1034 -1042 0
-1034 -1043 0
-1034 -1044 0
-1034 -1045 0
-1034 -1046 0
-1034 -1047 0
-1034 -1048 0
-1034 -1049 0
-1034 -1050 0
-1034 -1051 0
-1034 -1052 0
-1034 -1053 0
-1034 -1054 0
-1034 -1055 0
-1034 -1056 0
-1034 -1057 0
-1034 -1058 0
-1034 -1059 0
-1034 -1060 0
-1034 -1061 0
-1034 -1062 0
-1034 -1063 0
-1034 -1064 0
-1034 -1065 0
-1034 -1066 0
-1034 -1067 0
-1034 -1068 0
-1034 -1069 0
-1034 -1070 0
-1034 -1071 0
-1034 -1072 0
-1034 -1073 0
-1034 -1074 0
-1034 -1075 0
-1034 -1076 0
-1034 -1077 0
-1034 -1078 0
-1034 -1079 0
-1034 -1080 0
-1034 -1081 0
-1035 -1036 0
-1035 -1037 0
-1035 -1038 0
-1035 -1039 0
-1035 -1040 0
-1035 -1041 0
-1035 -1042 0
-1035 -1043 0
-1035 -1044 0
-1035 -1045 0
-1035 -1046 0
-1035 -1047 0
-1035 -1048 0
-1035 -1049 0
-1035 -1050 0
-1035 -1051 0
-1035 -1052 0
-1035 -1053 0
-1035 -1054 0
-1035 -1055 0
-1035 -1056 0
-1035 -1057 0
-1035 -1058 0
-1035 -1059 0
-1035 -1060 0
-1035 -1061 0
-1035 -1062 0
-1035 -1063 0
-1035 -1064 0
-1035 -1065 0
-1035 -1066 0
-1035 -1067 0
-1035 -1068 0
-1035 -1069 0
-1035 -1070 0
-1035 -1071 0
-1035 -1072 0
-1035 -1073 0
-1035 -1074 0
-1035 -1075 0
-1035 -1076 0
-1035 -1077 0
-1035 -1078 0
-1035 -1079 0
-1035 -1080 0
-1035 -1081 0
-1036 -1037 0
-1036 -1038 0
-1036 -1039 0
-1036 -1040 0
-1036 -1041 0
-1036 -1042 0
-1036 -1043 0
-1036 -1044 0
-1036 -1045 0
-1036 -1046 0
-1036 -1047 0
-1036 -1048 0
-1036 -1049 0
-1036 -1050 0
-1036 -1051 0
-1036 -1052 0
-1036 -1053 0
-1036 -1054 0
-1036 -1055 0
-1036 -1056 0
-1036 -1057 0
-1036 -1058 0
-1036 -1059 0
-1036 -1060 0
-1036 -1061 0
-1036 -1062 0
-1036 -1063 0
-1036 -1064 0
-1036 -1065 0
-1036 -1066 0
-1036 -1067 0
-1036 -1068 0
-1036 -1069 0
-1036 -1070 0
-1036 -1071 0
-1036 -1072 0
-1036 -1073 0
-1036 -1074 0
-1036 -1075 0
-1036 -1076 0
-1036 -1077 0
-1036 -1078 0
-1036 -1079 0
-1036 -1080 0
-1036 -1081 0
-1037 -1038 0
-1037 -1039 0
-1037 -1040 0
-1037 -1041 0
-1037 -1042 0
-1037 -1043 0
-1037 -1044 0
-1037 -1045 0
-1037 -1046 0
-1037 -1047 0
-1037 -1048 0
-1037 -1049 0
-1037 -1050 0
-1037 -1051 0
-1037 -1052 0
-1037 -1053 0
-1037 -1054 0
-1037 -1055 0
-1037 -1056 0
-1037 -1057 0
-1037 -1058 0
-1037 -1059 0
-1037 -1060 0
-1037 -1061 0
-1037 -1062 0
-1037 -1063 0
-1037 -1064 0
-1037 -1065 0
-1037 -1066 0
-1037 -1067 0
-1037 -1068 0
-1037 -1069 0
-1037 -1070 0
-1037 -1071 0
-1037 -1072 0
-1037 -1073 0
-1037 -1074 0
-1037 -1075 0
-1037 -1076 0
-1037 -1077 0
-1037 -1078 0
-1037 -1079 0
-1037 -1080 0
-1037 -1081 0
-1038 -1039 0
-1038 -1040 0
-1038 -1041 0
-1038 -1042 0
-1038 -1043 0
-1038 -1044 0
-1038 -1045 0
-1038 -1046 0
-1038 -1047 0
-1038 -1048 0
-1038 -1049 0
-1038 -1050 0
-1038 -1051 0
-1038 -1052 0
-1038 -1053 0
-1038 -1054 0
-1038 -1055 0
-1038 -1056 0
-1038 -1057 0
-1038 -1058 0
-1038 -1059 0
-1038 -1060 0
-1038 -1061 0
-1038 -1062 0
-1038 -1063 0
-1038 -1064 0
-1038 -1065 0
-1038 -1066 0
-1038 -1067 0
-1038 -1068 0
-1038 -1069 0
-1038 -1070 0
-1038 -1071 0
-1038 -1072 0
-1038 -1073 0
-1038 -1074 0
-1038 -1075 0
-1038 -1076 0
-1038 -1077 0
-1038 -1078 0
-1038 -1079 0
-1038 -1080 0
-1038 -1081 0
-1039 -1040 0
-1039 -1041 0
-1039 -1042 0
-1039 -1043 0
-1039 -1044 0
-1039 -1045 0
-1039 -1046 0
-1039 -1047 0
-1039 -1048 0
-1039 -1049 0
-1039 -1050 0
-1039 -1051 0
-1039 -1052 0
-1039 -1053 0
-1039 -1054 0
-1039 -1055 0
-1039 -1056 0
-1039 -1057 0
-1039 -1058 0
-1039 -1059 0
-1039 -1060 0
-1039 -1061 0
-1039 -1062 0
-1039 -1063 0
-1039 -1064 0
-1039 -1065 0
-1039 -1066 0
-1039 -1067 0
-1039 -1068 0
-1039 -1069 0
-1039 -1070 0
-1039 -1071 0
-1039 -1072 0
-1039 -1073 0
-1039 -1074 0
-1039 -1075 0
-1039 -1076 0
-1039 -1077 0
-1039 -1078 0
-1039 -1079 0
-1039 -1080 0
-1039 -1081 0
-1040 -1041 0
-1040 -1042 0
-1040 -1043 0
-1040 -1044 0
-1040 -1045 0
-1040 -1046 0
-1040 -1047 0
-1040 -1048 0
-1040 -1049 0
-1040 -1050 0
-1040 -1051 0
-1040 -1052 0
-1040 -1053 0
-1040 -1054 0
-1040 -1055 0
-1040 -1056 0
-1040 -1057 0
-1040 -1058 0
-1040 -1059 0
-1040 -1060 0
-1040 -1061 0
-1040 -1062 0
-1040 -1063 0
-1040 -1064 0
-1040 -1065 0
-1040 -1066 0
-1040 -1067 0
-1040 -1068 0
-1040 -1069 0
-1040 -1070 0
-1040 -1071 0
-1040 -1072 0
-1040 -1073 0
-1040 -1074 0
-1040 -1075 0
-1040 -1076 0
-1040 -1077 0
-1040 -1078 0
-1040 -1079 0
-1040 -1080 0
-1040 -1081 0
-1041 -1042 0
-1041 -1043 0
-1041 -1044 0
-1041 -1045 0
-1041 -1046 0
-1041 -1047 0
-1041 -1048 0
-1041 -1049 0
-1041 -1050 0
-1041 -1051 0
-1041 -1052 0
-1041 -1053 0
-1041 -1054 0
-1041 -1055 0
-1041 -1056 0
-1041 -1057 0
-1041 -1058 0
-1041 -1059 0
-1041 -1060 0
-1041 -1061 0
-1041 -1062 0
-1041 -1063 0
-1041 -1064 0
-1041 -1065 0
-1041 -1066 0
-1041 -1067 0
-1041 -1068 0
-1041 -1069 0
-1041 -1070 0
-1041 -1071 0
-1041 -1072 0
-1041 -1073 0
-1041 -1074 0
-1041 -1075 0
-1041 -1076 0
-1041 -1077 0
-1041 -1078 0
-1041 -1079 0
-1041 -1080 0
-1041 -1081 0
-1042 -1043 0
-1042 -1044 0
-1042 -1045 0
-1042 -1046 0
-1042 -1047 0
-1042 -1048 0
-1042 -1049 0
-1042 -1050 0
-1042 -1051 0
-1042 -1052 0
-1042 -1053 0
-1042 -1054 0
-1042 -1055 0
-1042 -1056 0
-1042 -1057 0
-1042 -1058 0
-1042 -1059 0
-1042 -1060 0
-1042 -1061 0
-1042 -1062 0
-1042 -1063 0
-1042 -1064 0
-1042 -1065 0
-1042 -1066 0
-1042 -1067 0
-1042 -1068 0
-1042 -1069 0
-1042 -1070 0
-1042 -1071 0
-1042 -1072 0
-1042 -1073 0
-1042 -1074 0
-1042 -1075 0
-1042 -1076 0
-1042 -1077 0
-1042 -1078 0
-1042 -1079 0
-1042 -1080 0
-1042 -1081 0
-1043 -1044 0
-1043 -1045 0
-1043 -1046 0
-1043 -1047 0
-1043 -1048 0
-1043 -1049 0
-1043 -1050 0
-1043 -1051 0
-1043 -1052 0
-1043 -1053 0
-1043 -1054 0
-1043 -1055 0
-1043 -1056 0
-1043 -1057 0
-1043 -1058 0
-1043 -1059 0
-1043 -1060 0
-1043 -1061 0
-1043 -1062 0
-1043 -1063 0
-1043 -1064 0
-1043 -1065 0
-1043 -1066 0
-1043 -1067 0
-1043 -1068 0
-1043 -1069 0
-1043 -1070 0
-1043 -1071 0
-1043 -1072 0
-1043 -1073 0
-1043 -1074 0
-1043 -1075 0
-1043 -1076 0
-1043 -1077 0
-1043 -1078 0
-1043 -1079 0
-1043 -1080 0
-1043 -1081 0
-1044 -1045 0
-1044 -1046 0
-1044 -1047 0
-1044 -1048 0
-1044 -1049 0
-1044 -1050 0
-1044 -1051 0
-1044 -1052 0
-1044 -1053 0
-1044 -1054 0
-1044 -1055 0
-1044 -1056 0
-1044 -1057 0
-1044 -1058 0
-1044 -1059 0
-1044 -1060 0
-1044 -1061 0
-1044 -1062 0
-1044 -1063 0
-1044 -1064 0
-1044 -1065 0
-1044 -1066 0
-1044 -1067 0
-1044 -1068 0
-1044 -1069 0
-1044 -1070 0
-1044 -1071 0
-1044 -1072 0
-1044 -1073 0
-1044 -1074 0
-1044 -1075 0
-1044 -1076 0
-1044 -1077 0
-1044 -1078 0
-1044 -1079 0
-1044 -1080 0
-1044 -1081 0
-1045 -1046 0
-1045 -1047 0
-1045 -1048 0
-1045 -1049 0
-1045 -1050 0
-1045 -1051 0
-1045 -1052 0
-1045 -1053 0
-1045 -1054 0
-1045 -1055 0
-1045 -1056 0
-1045 -1057 0
-1045 -1058 0
-1045 -1059 0
-1045 -1060 0
-1045 -1061 0
-1045 -1062 0
-1045 -1063 0
-1045 -1064 0
-1045 -1065 0
-1045 -1066 0
-1045 -1067 0
-1045 -1068 0
-1045 -1069 0
-1045 -1070 0
-1045 -1071 0
-1045 -1072 0
-1045 -1073 0
-1045 -1074 0
-1045 -1075 0
-1045 -1076 0
-1045 -1077 0
-1045 -1078 0
-1045 -1079 0
-1045 -1080 0
-1045 -1081 0
-1046 -1047 0
-1046 -1048 0
-1046 -1049 0
-1046 -1050 0
-1046 -1051 0
-1046 -1052 0
-1046 -1053 0
-1046 -1054 0
-1046 -1055 0
-1046 -1056 0
-1046 -1057 0
-1046 -1058 0
-1046 -1059 0
-1046 -1060 0
-1046 -1061 0
-1046 -1062 0
-1046 -1063 0
-1046 -1064 0
-1046 -1065 0
-1046 -1066 0
-1046 -1067 0
-1046 -1068 0
-1046 -1069 0
-1046 -1070 0
-1046 -1071 0
-1046 -1072 0
-1046 -1073 0
-1046 -1074 0
-1046 -1075 0
-1046 -1076 0
-1046 -1077 0
-1046 -1078 0
-1046 -1079 0
-1046 -1080 0
-1046 -1081 0
-1047 -1048 0
-1047 -1049 0
-1047 -1050 0
-1047 -1051 0
-1047 -1052 0
-1047 -1053 0
-1047 -1054 0
-1047 -1055 0
-1047 -1056 0
-1047 -1057 0
-1047 -1058 0
-1047 -1059 0
-1047 -1060 0
-1047 -1061 0
-1047 -1062 0
-1047 -1063 0
-1047 -1064 0
-1047 -1065 0
-1047 -1066 0
-1047 -1067 0
-1047 -1068 0
-1047 -1069 0
-1047 -1070 0
-1047 -1071 0
-1047 -1072 0
-1047 -1073 0
-1047 -1074 0
-1047 -1075 0
-1047 -1076 0
-1047 -1077 0
-1047 -1078 0
-1047 -1079 0
-1047 -1080 0
-1047 -1081 0
-1048 -1049 0
-1048 -1050 0
-1048 -1051 0
-1048 -1052 0
-1048 -1053 0
-1048 -1054 0
-1048 -1055 0
-1048 -1056 0
-1048 -1057 0
-1048 -1058 0
-1048 -1059 0
-1048 -1060 0
-1048 -1061 0
-1048 -1062 0
-1048 -1063 0
-1048 -1064 0
-1048 -1065 0
-1048 -1066 0
-1048 -1067 0
-1048 -1068 0
-1048 -1069 0
-1048 -1070 0
-1048 -1071 0
-1048 -1072 0
-1048 -1073 0
-1048 -1074 0
-1048 -1075 0
-1048 -1076 0
-1048 -1077 0
-1048 -1078 0
-1048 -1079 0
-1048 -1080 0
-1048 -1081 0
-1049 -1050 0
-1049 -1051 0
-1049 -1052 0
-1049 -1053 0
-1049 -1054 0
-1049 -1055 0
-1049 -1056 0
-1049 -1057 0
-1049 -1058 0
-1049 -1059 0
-1049 -1060 0
-1049 -1061 0
-1049 -1062 0
-1049 -1063 0
-1049 -1064 0
-1049 -1065 0
-1049 -1066 0
-1049 -1067 0
-1049 -1068 0
-1049 -1069 0
-1049 -1070 0
-1049 -1071 0
-1049 -1072 0
-1049 -1073 0
-1049 -1074 0
-1049 -1075 0
-1049 -1076 0
-1049 -1077 0
-1049 -1078 0
-1049 -1079 0
-1049 -1080 0
-1049 -1081 0
-1050 -1051 0
-1050 -1052 0
-1050 -1053 0
-1050 -1054 0
-1050 -1055 0
-1050 -1056 0
-1050 -1057 0
-1050 -1058 0
-1050 -1059 0
-1050 -1060 0
-1050 -1061 0
-1050 -1062 0
-1050 -1063 0
-1050 -1064 0
-1050 -1065 0
-1050 -1066 0
-1050 -1067 0
-1050 -1068 0
-1050 -1069 0
-1050 -1070 0
-1050 -1071 0
-1050 -1072 0
-1050 -1073 0
-1050 -1074 0
-1050 -1075 0
-1050 -1076 0
-1050 -1077 0
-1050 -1078 0
-1050 -1079 0
-1050 -1080 0
-1050 -1081 0
-1051 -1052 0
-1051 -1053 0
-1051 -1054 0
-1051 -1055 0
-1051 -1056 0
-1051 -1057 0
-1051 -1058 0
-1051 -1059 0
-1051 -1060 0
-1051 -1061 0
-1051 -1062 0
-1051 -1063 0
-1051 -1064 0
-1051 -1065 0
-1051 -1066 0
-1051 -1067 0
-1051 -1068 0
-1051 -1069 0
-1051 -1070 0
-1051 -1071 0
-1051 -1072 0
-1051 -1073 0
-1051 -1074 0
-1051 -1075 0
-1051 -1076 0
-1051 -1077 0
-1051 -1078 0
-1051 -1079 0
-1051 -1080 0
-1051 -1081 0
-1052 -1053 0
-1052 -1054 0
-1052 -1055 0
-1052 -1056 0
-1052 -1057 0
-1052 -1058 0
-1052 -1059 0
-1052 -1060 0
-1052 -1061 0
-1052 -1062 0
-1052 -1063 0
-1052 -1064 0
-1052 -1065 0
-1052 -1066 0
-1052 -1067 0
-1052 -1068 0
-1052 -1069 0
-1052 -1070 0
-1052 -1071 0
-1052 -1072 0
-1052 -1073 0
-1052 -1074 0
-1052 -1075 0
-1052 -1076 0
-1052 -1077 0
-1052 -1078 0
-1052 -1079 0
-1052 -1080 0
-1052 -1081 0
-1053 -1054 0
-1053 -1055 0
-1053 -1056 0
-1053 -1057 0
-1053 -1058 0
-1053 -1059 0
-1053 -1060 0
-1053 -1061 0
-1053 -1062 0
-1053 -1063 0
-1053 -1064 0
-1053 -1065 0
-1053 -1066 0
-1053 -1067 0
-1053 -1068 0
-1053 -1069 0
-1053 -1070 0
-1053 -1071 0
-1053 -1072 0
-1053 -1073 0
-1053 -1074 0
-1053 -1075 0
-1053 -1076 0
-1053 -1077 0
-1053 -1078 0
-1053 -1079 0
-1053 -1080 0
-1053 -1081 0
-1054 -1055 0
-1054 -1056 0
-1054 -1057 0
-1054 -1058 0
-1054 -1059 0
-1054 -1060 0
-1054 -1061 0
-1054 -1062 0
-1054 -1063 0
-1054 -1064 0
-1054 -1065 0
-1054 -1066 0
-1054 -1067 0
-1054 -1068 0
-1054 -1069 0
-1054 -1070 0
-1054 -1071 0
-1054 -1072 0
-1054 -1073 0
-1054 -1074 0
-1054 -1075 0
-1054 -1076 0
-1054 -1077 0
-1054 -1078 0
-1054 -1079 0
-1054 -1080 0
-1054 -1081 0
-1055 -1056 0
-1055 -1057 0
-1055 -1058 0
-1055 -1059 0
-1055 -1060 0
-1055 -1061 0
-1055 -1062 0
-1055 -1063 0
-1055 -1064 0
-1055 -1065 0
-1055 -1066 0
-1055 -1067 0
-1055 -1068 0
-1055 -1069 0
-1055 -1070 0
-1055 -1071 0
-1055 -1072 0
-1055 -1073 0
-1055 -1074 0
-1055 -1075 0
-1055 -1076 0
-1055 -1077 0
-1055 -1078 0
-1055 -1079 0
-1055 -1080 0
-1055 -1081 0
-1056 -1057 0
-1056 -1058 0
-1056 -1059 0
-1056 -1060 0
-1056 -1061 0
-1056 -1062 0
-1056 -1063 0
-1056 -1064 0
-1056 -1065 0
-1056 -1066 0
-1056 -1067 0
-1056 -1068 0
-1056 -1069 0
-1056 -1070 0
-1056 -1071 0
-1056 -1072 0
-1056 -1073 0
-1056 -1074 0
-1056 -1075 0
-1056 -1076 0
-1056 -1077 0
-1056 -1078 0
-1056 -1079 0
-1056 -1080 0
-1056 -1081 0
-1057 -1058 0
-1057 -1059 0
-1057 -1060 0
-1057 -1061 0
-1057 -1062 0
-1057 -1063 0
-1057 -1064 0
-1057 -1065 0
-1057 -1066 0
-1057 -1067 0
-1057 -1068 0
-1057 -1069 0
-1057 -1070 0
-1057 -1071 0
-1057 -1072 0
-1057 -1073 0
-1057 -1074 0
-1057 -1075 0
-1057 -1076 0
-1057 -1077 0
-1057 -1078 0
-1057 -1079 0
-1057 -1080 0
-1057 -1081 0
-1058 -1059 0
-1058 -1060 0
-1058 -1061 0
-1058 -1062 0
-1058 -1063 0
-1058 -1064 0
-1058 -1065 0
-1058 -1066 0
-1058 -1067 0
-1058 -1068 0
-1058 -1069 0
-1058 -1070 0
-1058 -1071 0
-1058 -1072 0
-1058 -1073 0
-1058 -1074 0
-1058 -1075 0
-1058 -1076 0
-1058 -1077 0
-1058 -1078 0
-1058 -1079 0
-1058 -1080 0
-1058 -1081 0
-1059 -1060 0
-1059 -1061 0
-1059 -1062 0
-1059 -1063 0
-1059 -1064 0
-1059 -1065 0
-1059 -1066 0
-1059 -1067 0
-1059 -1068 0
-1059 -1069 0
-1059 -1070 0
-1059 -1071 0
-1059 -1072 0
-1059 -1073 0
-1059 -1074 0
-1059 -1075 0
-1059 -1076 0
-1059 -1077 0
-1059 -1078 0
-1059 -1079 0
-1059 -1080 0
-1059 -1081 0
-1060 -1061 0
-1060 -1062 0
-1060 -1063 0
-1060 -1064 0
-1060 -1065 0
-1060 -1066 0
-1060 -1067 0
-1060 -1068 0
-1060 -1069 0
-1060 -1070 0
-1060 -1071 0
-1060 -1072 0
-1060 -1073 0
-1060 -1074 0
-1060 -1075 0
-1060 -1076 0
-1060 -1077 0
-1060 -1078 0
-1060 -1079 0
-1060 -1080 0
-1060 -1081 0
-1061 -1062 0
-1061 -1063 0
-1061 -1064 0
-1061 -1065 0
-1061 -1066 0
-1061 -1067 0
-1061 -1068 0
-1061 -1069 0
-1061 -1070 0
-1061 -1071 0
-1061 -1072 0
-1061 -1073 0
-1061 -1074 0
-1061 -1075 0
-1061 -1076 0
-1061 -1077 0
-1061 -1078 0
-1061 -1079 0
-1061 -1080 0
-1061 -1081 0
-1062 -1063 0
-1062 -1064 0
-1062 -1065 0
-1062 -1066 0
-1062 -1067 0
-1062 -1068 0
-1062 -1069 0
-1062 -1070 0
-1062 -1071 0
-1062 -1072 0
-1062 -1073 0
-1062 -1074 0
-1062 -1075 0
-1062 -1076 0
-1062 -1077 0
-1062 -1078 0
-1062 -1079 0
-1062 -1080 0
-1062 -1081 0
-1063 -1064 0
-1063 -1065 0
-1063 -1066 0
-1063 -1067 0
-1063 -1068 0
-1063 -1069 0
-1063 -1070 0
-1063 -1071 0
-1063 -1072 0
-1063 -1073 0
-1063 -1074 0
-1063 -1075 0
-1063 -1076 0
-1063 -1077 0
-1063 -1078 0
-1063 -1079 0
-1063 -1080 0
-1063 -1081 0
-1064 -1065 0
-1064 -1066 0
-1064 -1067 0
-1064 -1068 0
-1064 -1069 0
-1064 -1070 0
-1064 -1071 0
-1064 -1072 0
-1064 -1073 0
-1064 -1074 0
-1064 -1075 0
-1064 -1076 0
-1064 -1077 0
-1064 -1078 0
-1064 -1079 0
-1064 -1080 0
-1064 -1081 0
-1065 -1066 0
-1065 -1067 0
-1065 -1068 0
-1065 -1069 0
-1065 -1070 0
-1065 -1071 0
-1065 -1072 0
-1065 -1073 0
-1065 -1074 0
-1065 -1075 0
-1065 -1076 0
-1065 -1077 0
-1065 -1078 0
-1065 -1079 0
-1065 -1080 0
-1065 -1081 0
-1066 -1067 0
-1066 -1068 0
-1066 -1069 0
-1066 -1070 0
-1066 -1071 0
-1066 -1072 0
-1066 -1073 0
-1066 -1074 0
-1066 -1075 0
-1066 -1076 0
-1066 -1077 0
-1066 -1078 0
-1066 -1079 0
-1066 -1080 0
-1066 -1081 0
-1067 -1068 0
-1067 -1069 0
-1067 -1070 0
-1067 -1071 0
-1067 -1072 0
-1067 -1073 0
-1067 -1074 0
-1067 -1075 0
-1067 -1076 0
-1067 -1077 0
-1067 -1078 0
-1067 -1079 0
-1067 -1080 0
-1067 -1081 0
-1068 -1069 0
-1068 -1070 0
-1068 -1071 0
-1068 -1072 0
-1068 -1073 0
-1068 -1074 0
-1068 -1075 0
-1068 -1076 0
-1068 -1077 0
-1068 -1078 0
-1068 -1079 0
-1068 -1080 0
-1068 -1081 0
-1069 -1070 0
-1069 -1071 0
-1069 -1072 0
-1069 -1073 0
-1069 -1074 0
-1069 -1075 0
-1069 -1076 0
-1069 -1077 0
-1069 -1078 0
-1069 -1079 0
-1069 -1080 0
-1069 -1081 0
-1070 -1071 0
-1070 -1072 0
-1070 -1073 0
-1070 -1074 0
-1070 -1075 0
-1070 -1076 0
-1070 -1077 0
-1070 -1078 0
-1070 -1079 0
-1070 -1080 0
-1070 -1081 0
-1071 -1072 0
-1071 -1073 0
-1071 -1074 0
-1071 -1075 0
-1071 -1076 0
-1071 -1077 0
-1071 -1078 0
-1071 -1079 0
-1071 -1080 0
-1071 -1081 0
-1072 -1073 0
-1072 -1074 0
-1072 -1075 0
-1072 -1076 0
-1072 -1077 0
-1072 -1078 0
-1072 -1079 0
-1072 -1080 0
-1072 -1081 0
-1073 -1074 0
-1073 -1075 0
-1073 -1076 0
-1073 -1077 0
-1073 -1078 0
-1073 -1079 0
-1073 -1080 0
-1073 -1081 0
-1074 -1075 0
-1074 -1076 0
-1074 -1077 0
-1074 -1078 0
-1074 -1079 0
-1074 -1080 0
-1074 -1081 0
-1075 -1076 0
-1075 -1077 0
-1075 -1078 0
-1075 -1079 0
-1075 -1080 0
-1075 -1081 0
-1076 -1077 0
-1076 -1078 0
-1076 -1079 0
-1076 -1080 0
-1076 -1081 0
-1077 -1078 0
-1077 -1079 0
-1077 -1080 0
-1077 -1081 0
-1078 -1079 0
-1078 -1080 0
-1078 -1081 0
-1079 -1080 0
-1079 -1081 0
-1080 -1081 0
-448 597 998 999 1000 1001 1002 1003 1004 1005 1006 1007 1008 1009 1010 1011 1012 1013 1014 1015 1016 1017 1018 1019 1020 1021 0
448 -597 998 999 1000 1001 1002 1003 1004 1005 1006 1007 1008 1009 1010 1011 1012 1013 1014 1015 1016 1017 1018 1019 1020 1021 0
-449 598 998 999 1000 1001 1002 1003 1004 1005 1006 1007 1008 1009 1010 1011 1012 1013 1014 1015 1016 1017 1018 1019 1020 1021 0
449 -598 998 999 1000 1001 1002 1003 1004 1005 1006 1007 1008 1009 1010 1011 1012 1013 1014 1015 1016 1017 1018 1019 1020 1021 0
-450 599 998 999 1000 1001 1002 1003 1004 1005 1006 1007 1008 1009 1010 1011 1012 1013 1014 1015 1016 1017 1018 1019 1020 1021 0
450 -599 998 999 1000 1001 1002 1003 1004 1005 1006 1007 1008 1009 1010 1011 1012 1013 1014 1015 1016 1017 1018 1019 1020 1021 0
-451 600 998 999 1000 1001 1002 1003 1004 1005 1006 1007 1008 1009 1010 1011 1012 1013 1014 1015 1016 1017 1018 1019 1020 1021 0
451 -600 998 999 1000 1001 1002 1003 1004 1005 1006 1007 1008 1009 1010 1011 1012 1013 1014 1015 1016 1017 1018 1019 1020 1021 0
-452 601 998 999 1000 1001 1002 1003 1004 1005 1006 1007 1008 1009 1010 1011 1012 1013 1014 1015 1016 1017 1018 1019 1020 1021 0
452 -601 998 999 1000 1001 1002 1003 1004 1005 1006 1007 1008 1009 1010 1011 1012 1013 1014 1015 1016 1017 1018 1019 1020 1021 0
-453 602 998 999 1000 1001 1002 1003 1004 1005 1006 1007 1008 1009 1010 1011 1012 1013 1014 1015 1016 1017 1018 1019 1020 1021 0
453 -602 998 999 1000 1001 1002 1003 1004 1005 1006 1007 1008 1009 1010 1011 1012 1013 1014 1015 1016 1017 1018 1019 1020 1021 0
-454 603 998 999 1000 1001 1002 1003 1004 1005 1006 1007 1008 1009 1010 1011 1012 1013 1014 1015 1016 1017 1018 1019 1020 1021 0
454 -603 998 999 1000 1001 1002 1003 1004 1005 1006 1007 1008 1009 1010 1011 1012 1013 1014 1015 1016 1017 1018 1019 1020 1021 0
-455 604 998 999 1000 1001 1002 1003 1004 1005 1006 1007 1008 1009 1010 1011 1012 1013 1014 1015 1016 1017 1018 1019 1020 1021 0
455 -604 998 999 1000 1001 1002 1003 1004 1005 1006 1007 1008 1009 1010 1011 1012 1013 1014 1015 1016 1017 1018 1019 1020 1021 0
-456 605 998 999 1000 1001 1002 1003 1004 1005 1006 1007 1008 1009 1010 1011 1012 1013 1014 1015 1016 1017 1018 1019 1020 1021 0
456 -605 998 999 1000 1001 1002 1003 1004 1005 1006 1007 1008 1009 1010 1011 1012 1013 1014 1015 1016 1017 1018 1019 1020 1021 0
-457 606 998 999 1000 1001 1002 1003 1004 1005 1006 1007 1008 1009 1010 1011 1012 1013 1014 1015 1016 1017 1018 1019 1020 1021 0
457 -606 998 999 1000 1001 1002 1003 1004 1005 1006 1007 1008 1009 1010 1011 1012 1013 1014 1015 1016 1017 1018 1019 1020 1021 0
-507 656 1022 1023 1024 1025 1026 1027 1028 1029 1030 1031 1032 1033 1034 1035 1036 1037 1038 1039 1040 1041 1042 1043 1044 1045 0
507 -656 1022 1023 1024 1025 1026 1027 1028 1029 1030 1031 1032 1033 1034 1035 1036 1037 1038 1039 1040 1041 1042 1043 1044 1045 0
-508 657 1022 1023 1024 1025 1026 1027 1028 1029 1030 1031 1032 1033 1034 1035 1036 1037 1038 1039 1040 1041 1042 1043 1044 1045 0
508 -657 1022 1023 1024 1025 1026 1027 1028 1029 1030 1031 1032 1033 1034 1035 1036 1037 1038 1039 1040 1041 1042 1043 1044 1045 0
-509 658 1022 1023 1024 1025 1026 1027 1028 1029 1030 1031 1032 1033 1034 1035 1036 1037 1038 1039 1040 1041 1042 1043 1044 1045 0
509 -658 1022 1023 1024 1025 1026 1027 1028 1029 1030 1031 1032 1033 1034 1035 1036 1037 1038 1039 1040 1041 1042 1043 1044 1045 0
-510 659 1022 1023 1024 1025 1026 1027 1028 1029 1030 1031 1032 1033 1034 1035 1036 1037 1038 1039 1040 1041 1042 1043 1044 1045 0
510 -659 1022 1023 1024 1025 1026 1027 1028 1029 1030 1031 1032 1033 1034 1035 1036 1037 1038 1039 1040 1041 1042 1043 1044 1045 0
-511 660 1022 1023 1024 1025 1026 1027 1028 1029 1030 1031 1032 1033 1034 1035 1036 1037 1038 1039 1040 1041 1042 1043 1044 1045 0
511 -660 1022 1023 1024 1025 1026 1027 1028 1029 1030 1031 1032 1033 1034 1035 1036 1037 1038 1039 1040 1041 1042 1043 1044 1045 0
-512 661 1022 1023 1024 1025 1026 1027 1028 1029 1030 1031 1032 1033 1034 1035 1036 1037 1038 1039 1040 1041 1042 1043 1044 1045 0
512 -661 1022 1023 1024 1025 1026 1027 1028 1029 1030 1031 1032 1033 1034 1035 1036 1037 1038 1039 1040 1041 1042 1043 1044 1045 0
-513 662 1022 1023 1024 1025 1026 1027 1028 1029 1030 1031 1032 1033 1034 1035 1036 1037 1038 1039 1040 1041 1042 1043 1044 1045 0
513 -662 1022 1023 1024 1025 1026 1027 1028 1029 1030 1031 1032 1033 1034 1035 1036 1037 1038 1039 1040 1041 1042 1043 1044 1045 0
-514 663 1022 1023 1024 1025 1026 1027 1028 1029 1030 1031 1032 1033 1034 1035 1036 1037 1038 1039 1040 1041 1042 1043 1044 1045 0
514 -663 1022 1023 1024 1025 1026 1027 1028 1029 1030 1031 1032 1033 1034 1035 1036 1037 1038 1039 1040 1041 1042 1043 1044 1045 0
-515 664 1022 1023 1024 1025 1026 1027 1028 1029 1030 1031 1032 1033 1034 1035 1036 1037 1038 1039 1040 1041 1042 1043 1044 1045 0
515 -664 1022 1023 1024 1025 1026 1027 1028 1029 1030 1031 1032 1033 1034 1035 1036 1037 1038 1039 1040 1041 1042 1043 1044 1045 0
-516 665 1022 1023 1024 1025 1026 1027 1028 1029 1030 1031 1032 1033 1034 1035 1036 1037 1038 1039 1040 1041 1042 1043 1044 1045 0
516 -665 1022 1023 1024 1025 1026 1027 1028 1029 1030 1031 1032 1033 1034 1035 1036 1037 1038 1039 1040 1041 1042 1043 1044 1045 0
-542 691 1046 1047 1048 1049 1050 1051 1052 1053 1054 1055 1056 1057 1058 1059 1060 1061 1062 1063 1064 1065 0
542 -691 1046 1047 1048 1049 1050 1051 1052 1053 1054 1055 1056 1057 1058 1059 1060 1061 1062 1063 1064 1065 0
-543 692 1046 1047 1048 1049 1050 1051 1052 1053 1054 1055 1056 1057 1058 1059 1060 1061 1062 1063 1064 1065 0
543 -692 1046 1047 1048 1049 1050 1051 1052 1053 1054 1055 1056 1057 1058 1059 1060 1061 1062 1063 1064 1065 0
-544 693 1046 1047 1048 1049 1050 1051 1052 1053 1054 1055 1056 1057 1058 1059 1060 1061 1062 1063 1064 1065 0
544 -693 1046 1047 1048 1049 1050 1051 1052 1053 1054 1055 1056 1057 1058 1059 1060 1061 1062 1063 1064 1065 0
-545 694 1046 1047 1048 1049 1050 1051 1052 1053 1054 1055 1056 1057 1058 1059 1060 1061 1062 1063 1064 1065 0
545 -694 1046 1047 1048 1049 1050 1051 1052 1053 1054 1055 1056 1057 1058 1059 1060 1061 1062 1063 1064 1065 0
-546 695 1046 1047 1048 1049 1050 1051 1052 1053 1054 1055 1056 1057 1058 1059 1060 1061 1062 1063 1064 1065 0
546 -695 1046 1047 1048 1049 1050 1051 1052 1053 1054 1055 1056 1057 1058 1059 1060 1061 1062 1063 1064 1065 0
-547 696 1046 1047 1048 1049 1050 1051 1052 1053 1054 1055 1056 1057 1058 1059 1060 1061 1062 1063 1064 1065 0
547 -696 1046 1047 1048 1049 1050 1051 1052 1053 1054 1055 1056 1057 1058 1059 1060 1061 1062 1063 1064 1065 0
-548 697 1046 1047 1048 1049 1050 1051 1052 1053 1054 1055 1056 1057 1058 1059 1060 1061 1062 1063 1064 1065 0
548 -697 1046 1047 1048 1049 1050 1051 1052 1053 1054 1055 1056 1057 1058 1059 1060 1061 1062 1063 1064 1065 0
-549 698 1046 1047 1048 1049 1050 1051 1052 1053 1054 1055 1056 1057 1058 1059 1060 1061 1062 1063 1064 1065 0
549 -698 1046 1047 1048 1049 1050 1051 1052 1053 1054 1055 1056 1057 1058 1059 1060 1061 1062 1063 1064 1065 0
-550 699 1046 1047 1048 1049 1050 1051 1052 1053 1054 1055 1056 1057 1058 1059 1060 1061 1062 1063 1064 1065 0
550 -699 1046 1047 1048 1049 1050 1051 1052 1053 1054 1055 1056 1057 1058 1059 1060 1061 1062 1063 1064 1065 0
-572 721 1066 1067 1068 1069 1070 1071 1072 1073 1074 1075 1076 1077 1078 1079 1080 1081 0
572 -721 1066 1067 1068 1069 1070 1071 1072 1073 1074 1075 1076 1077 1078 1079 1080 1081 0
-573 722 1066 1067 1068 1069 1070 1071 1072 1073 1074 1075 1076 1077 1078 1079 1080 1081 0
573 -722 1066 1067 1068 1069 1070 1071 1072 1073 1074 1075 1076 1077 1078 1079 1080 1081 0
-574 723 1066 1067 1068 1069 1070 1071 1072 1073 1074 1075 1076 1077 1078 1079 1080 1081 0
574 -723 1066 1067 1068 1069 1070 1071 1072 1073 1074 1075 1076 1077 1078 1079 1080 1081 0
-575 724 1066 1067 1068 1069 1070 1071 1072 1073 1074 1075 1076 1077 1078 1079 1080 1081 0
575 -724 1066 1067 1068 1069 1070 1071 1072 1073 1074 1075 1076 1077 1078 1079 1080 1081 0
-576 725 1066 1067 1068 1069 1070 1071 1072 1073 1074 1075 1076 1077 1078 1079 1080 1081 0
576 -725 1066 1067 1068 1069 1070 1071 1072 1073 1074 1075 1076 1077 1078 1079 1080 1081 0
-577 726 1066 1067 1068 1069 1070 1071 1072 1073 1074 1075 1076 1077 1078 1079 1080 1081 0
577 -726 1066 1067 1068 1069 1070 1071 1072 1073 1074 1075 1076 1077 1078 1079 1080 1081 0
-578 727 1066 1067 1068 1069 1070 1071 1072 1073 1074 1075 1076 1077 1078 1079 1080 1081 0
578 -727 1066 1067 1068 1069 1070 1071 1072 1073 1074 1075 1076 1077 1078 1079 1080 1081 0
-579 728 1066 1067 1068 1069 1070 1071 1072 1073 1074 1075 1076 1077 1078 1079 1080 1081 0
579 -728 1066 1067 1068 1069 1070 1071 1072 1073 1074 1075 1076 1077 1078 1079 1080 1081 0
